&CONTROL
   calculation      = 'scf'
   verbosity        = 'high'
   nstep            = 1
   tstress          = .true.
   tprnfor          = .true.
   outdir           = 'calculations/'
   prefix           = 'myprefix'
   pseudo_dir       = '/home/pragov/projects/rrg-bengioy-ad/pragov/crystal_structure_design/SSSP'
/
&SYSTEM
   ecutwfc          = 30
   ecutrho          = 240
   occupations      = 'smearing'
   degauss          = 0.001
   smearing         = 'mp'
   nspin            = 1
   ntyp             = 3
   nat              = 8
   ibrav            = 0
/
&ELECTRONS
   electron_maxstep = 100
   mixing_mode      = 'plain'
   mixing_beta      = 0.7
   diagonalization  = 'david'
/
&IONS
/
&CELL
/

ATOMIC_SPECIES
Rb 85.4678 Rb_ONCV_PBE-1.0.oncvpsp.upf
Sc 44.955908 Sc_ONCV_PBE-1.0.oncvpsp.upf
O 15.999 O.pbe-n-kjpaw_psl.0.1.UPF

K_POINTS gamma

CELL_PARAMETERS angstrom
3.28499155000000 0.00000000000000 0.00000000000000
-1.64249532167147 2.84488639524652 0.00000000000000
0.00000000000000 0.00000000000000 12.88091400000000

ATOMIC_POSITIONS angstrom
Rb -0.0000013403 1.8965918785 9.6606855000 
Rb 1.6424975686 0.9482945168 3.2202285000 
Sc 0.0000000000 0.0000000000 0.0000000000 
Sc 0.0000000000 0.0000000000 6.4404570000 
O -0.0000013403 1.8965918785 5.3590012224 
O 1.6424975686 0.9482945168 11.7994582224 
O -0.0000013403 1.8965918785 1.0814557776 
O 1.6424975686 0.9482945168 7.5219127776 

