&CONTROL
   calculation      = 'scf'
   verbosity        = 'high'
   nstep            = 1
   tstress          = .true.
   tprnfor          = .true.
   outdir           = 'calculations/'
   prefix           = 'myprefix'
   pseudo_dir       = '/home/pragov/projects/rrg-bengioy-ad/pragov/crystal_structure_design/SSSP'
/
&SYSTEM
   ecutwfc          = 30
   ecutrho          = 240
   occupations      = 'smearing'
   degauss          = 0.001
   smearing         = 'mp'
   nspin            = 1
   ntyp             = 3
   nat              = 20
   ibrav            = 0
/
&ELECTRONS
   electron_maxstep = 100
   mixing_mode      = 'plain'
   mixing_beta      = 0.7
   diagonalization  = 'david'
/
&IONS
/
&CELL
/

ATOMIC_SPECIES
La 138.90547 La.GGA-PBE-paw-v1.0.UPF
Cu 63.546 Cu_pbe_v1.2.uspp.F.UPF
Bi 208.9804 Bi_pbe_v1.uspp.F.UPF

K_POINTS gamma

CELL_PARAMETERS angstrom
8.78591086000000 0.00000000000000 0.00000000000000
-2.92863695268410 8.28343619757158 0.00000000000000
-2.92863695268410 -4.14171809740856 7.17366617851971

ATOMIC_POSITIONS angstrom
La 6.5894331452 1.5531442872 0.8967082723 
La 2.1964777157 4.6594328617 2.6901248169 
La -0.7321592377 -2.5885738105 6.2769579062 
La 3.6607961923 0.5177147632 4.4835413616 
La -2.1964777143 6.2125771485 1.7934165446 
La -0.7321592374 2.0708590504 5.3802496339 
Cu 0.7321592389 -0.5177147615 4.4835413616 
Cu -3.6607961906 2.5885738129 6.2769579062 
Cu -0.7321592377 3.6240033370 2.6901248169 
Cu 3.6607961923 6.7302919107 0.8967082723 
Cu 3.6607961921 2.0708590497 1.7934165446 
Cu 5.1251146689 -2.0708590484 5.3802496339 
Bi 4.3165648640 4.1417180988 0.0000000000 
Bi -0.4626426357 5.5583016576 4.7200714828 
Bi 5.3946312706 3.3794100331 3.5868330893 
Bi 2.4659943176 3.4874426084 6.0404277850 
Bi 3.9303127933 -0.6542754913 1.1332383936 
Bi -0.0763905660 4.1417180988 0.0000000000 
Bi 6.8589497470 -0.7623080657 3.5868330893 
Bi 1.0016758403 1.4165835584 2.4535946957 

