&CONTROL
   calculation      = 'scf'
   verbosity        = 'high'
   nstep            = 1
   tstress          = .true.
   tprnfor          = .true.
   outdir           = 'calculations/'
   prefix           = 'myprefix'
   pseudo_dir       = '/home/pragov/projects/rrg-bengioy-ad/pragov/crystal_structure_design/SSSP'
/
&SYSTEM
   ecutwfc          = 30
   ecutrho          = 240
   occupations      = 'smearing'
   degauss          = 0.001
   smearing         = 'mp'
   nspin            = 1
   ntyp             = 3
   nat              = 10
   ibrav            = 0
/
&ELECTRONS
   electron_maxstep = 100
   mixing_mode      = 'plain'
   mixing_beta      = 0.7
   diagonalization  = 'david'
/
&IONS
/
&CELL
/

ATOMIC_SPECIES
K 39.0983 K.pbe-spn-kjpaw_psl.1.0.0.UPF
Rh 102.9055 Rh_ONCV_PBE-1.0.oncvpsp.upf
F 18.998403163 f_pbe_v1.4.uspp.F.UPF

K_POINTS gamma

CELL_PARAMETERS angstrom
6.36701856000000 0.00000000000000 0.00000000000000
3.18350928000000 5.51399981932701 0.00000000000000
3.18350928000000 1.83799993977567 5.19864888494337

ATOMIC_POSITIONS angstrom
K 3.1835092800 1.8379999398 1.2996622212 
K 9.5505278400 5.5139998193 3.8989866637 
K 6.3670185600 3.6759998796 2.5993244425 
Rh 0.0000000000 0.0000000000 0.0000000000 
F 4.6047678970 2.6585639849 4.0381960835 
F 6.3670185600 5.7108716689 4.0381960835 
F 8.1292692230 4.6934357742 1.1604528014 
F 4.6047678970 4.6934357742 1.1604528014 
F 8.1292692230 2.6585639849 4.0381960835 
F 6.3670185600 1.6411280902 1.1604528014 

