&CONTROL
   calculation      = 'scf'
   verbosity        = 'high'
   nstep            = 1
   tstress          = .true.
   tprnfor          = .true.
   outdir           = 'calculations/'
   prefix           = 'myprefix'
   pseudo_dir       = '/home/pragov/projects/rrg-bengioy-ad/pragov/crystal_structure_design/SSSP'
/
&SYSTEM
   ecutwfc          = 30
   ecutrho          = 240
   occupations      = 'smearing'
   degauss          = 0.001
   smearing         = 'mp'
   nspin            = 1
   ntyp             = 2
   nat              = 12
   ibrav            = 0
/
&ELECTRONS
   electron_maxstep = 100
   mixing_mode      = 'plain'
   mixing_beta      = 0.7
   diagonalization  = 'david'
/
&IONS
/
&CELL
/

ATOMIC_SPECIES
C 12.011 C.pbe-n-kjpaw_psl.1.0.0.UPF
O 15.999 O.pbe-n-kjpaw_psl.0.1.UPF

K_POINTS gamma

CELL_PARAMETERS angstrom
3.76681700000000 0.00000000000000 0.00000000000000
0.00000000000000 5.58326400000000 0.00000000000000
0.00000000000000 0.00000000000000 10.99466700000000

ATOMIC_POSITIONS angstrom
C 0.8937978714 0.5710394921 7.2978201679 
C 2.8730191286 3.3626714921 3.6968468321 
C 2.7772063714 3.3626714921 9.1941803321 
C 0.9896106286 0.5710394921 1.8004866679 
O 1.2344273659 0.2714694622 6.2166156098 
O 2.5323896341 3.0631014622 4.7780513902 
O 3.1178358659 3.0631014622 10.2753848902 
O 0.6489811341 0.2714694622 0.7192821098 
O 0.5527502602 0.8771307744 8.3839833208 
O 3.2140667398 3.6687627744 2.6106836791 
O 2.4361587602 3.6687627744 8.1080171791 
O 1.3306582398 0.8771307744 2.8866498209 

