&CONTROL
   calculation      = 'scf'
   verbosity        = 'high'
   nstep            = 1
   tstress          = .true.
   tprnfor          = .true.
   outdir           = 'calculations/'
   prefix           = 'myprefix'
   pseudo_dir       = '/home/pragov/projects/rrg-bengioy-ad/pragov/crystal_structure_design/SSSP'
/
&SYSTEM
   ecutwfc          = 30
   ecutrho          = 240
   occupations      = 'smearing'
   degauss          = 0.001
   smearing         = 'mp'
   nspin            = 1
   ntyp             = 4
   nat              = 18
   ibrav            = 0
/
&ELECTRONS
   electron_maxstep = 100
   mixing_mode      = 'plain'
   mixing_beta      = 0.7
   diagonalization  = 'david'
/
&IONS
/
&CELL
/

ATOMIC_SPECIES
K 39.0983 K.pbe-spn-kjpaw_psl.1.0.0.UPF
Mn 54.938044 mn_pbe_v1.5.uspp.F.UPF
I 126.90447 I.pbe-n-kjpaw_psl.0.2.UPF
O 15.999 O.pbe-n-kjpaw_psl.0.1.UPF

K_POINTS gamma

CELL_PARAMETERS angstrom
5.12804591000000 0.00000000000000 0.00000000000000
-2.56402286198754 4.44101808353366 0.00000000000000
0.00000000000000 0.00000000000000 12.25657500000000

ATOMIC_POSITIONS angstrom
K 2.5640255500 1.4803378808 3.0641437500 
K 2.5640255500 1.4803378808 9.1924312500 
Mn -0.0000025020 2.9606802027 6.1282875000 
Mn -0.0000025020 2.9606802027 0.0000000000 
I 0.0000000000 0.0000000000 0.0000000000 
I 0.0000000000 0.0000000000 6.1282875000 
O -0.6063067855 1.4601223665 5.0469021443 
O -0.6063067855 1.4601223665 11.1751896443 
O -0.9963664115 4.2360340119 5.0469021443 
O -0.9963664115 4.2360340119 11.1751896443 
O 0.6063068467 1.4601223665 1.0813853557 
O 0.6063068467 1.4601223665 7.2096728557 
O 1.6026733830 3.1858797887 5.0469021443 
O 1.6026733830 3.1858797887 11.1751896443 
O 0.9963665889 4.2360340119 1.0813853557 
O 0.9963665889 4.2360340119 7.2096728557 
O -1.6026732496 3.1858797887 1.0813853557 
O -1.6026732496 3.1858797887 7.2096728557 

