&CONTROL
   calculation      = 'scf'
   verbosity        = 'high'
   nstep            = 1
   tstress          = .true.
   tprnfor          = .true.
   outdir           = 'calculations/'
   prefix           = 'myprefix'
   pseudo_dir       = '/home/pragov/projects/rrg-bengioy-ad/pragov/crystal_structure_design/SSSP'
/
&SYSTEM
   ecutwfc          = 30
   ecutrho          = 240
   occupations      = 'smearing'
   degauss          = 0.001
   smearing         = 'mp'
   nspin            = 1
   ntyp             = 2
   nat              = 12
   ibrav            = 0
/
&ELECTRONS
   electron_maxstep = 100
   mixing_mode      = 'plain'
   mixing_beta      = 0.7
   diagonalization  = 'david'
/
&IONS
/
&CELL
/

ATOMIC_SPECIES
Cd 112.414 Cd.pbe-dn-rrkjus_psl.0.3.1.UPF
Cu 63.546 Cu_pbe_v1.2.uspp.F.UPF

K_POINTS gamma

CELL_PARAMETERS angstrom
5.06721172000000 0.00000000000000 0.00000000000000
-2.53360558427283 4.38833423506538 0.00000000000000
0.00000000000000 0.00000000000000 8.01649500000000

ATOMIC_POSITIONS angstrom
Cd -0.0000023498 2.9255576195 3.5143672760 
Cd 2.5336084855 1.4627766156 4.5021277240 
Cd 2.5336084855 1.4627766156 7.5226147760 
Cd -0.0000023498 2.9255576195 0.4938802240 
Cu 0.0000026268 1.4831911464 6.0123712500 
Cu -1.2491206656 3.6467364677 6.0123712500 
Cu 1.2844799447 0.7415977674 2.0041237500 
Cu 2.5336035089 2.9051430886 2.0041237500 
Cu 1.2491261910 3.6467364677 6.0123712500 
Cu 0.0000000000 0.0000000000 0.0000000000 
Cu 3.7827268013 0.7415977674 2.0041237500 
Cu 0.0000000000 0.0000000000 4.0082475000 

