&CONTROL
   calculation      = 'scf'
   verbosity        = 'high'
   nstep            = 1
   tstress          = .true.
   tprnfor          = .true.
   outdir           = 'calculations/'
   prefix           = 'myprefix'
   pseudo_dir       = '/home/pragov/projects/rrg-bengioy-ad/pragov/crystal_structure_design/SSSP'
/
&SYSTEM
   ecutwfc          = 30
   ecutrho          = 240
   occupations      = 'smearing'
   degauss          = 0.001
   smearing         = 'mp'
   nspin            = 1
   ntyp             = 4
   nat              = 17
   ibrav            = 0
/
&ELECTRONS
   electron_maxstep = 100
   mixing_mode      = 'plain'
   mixing_beta      = 0.7
   diagonalization  = 'david'
/
&IONS
/
&CELL
/

ATOMIC_SPECIES
In 114.818 In.pbe-dn-rrkjus_psl.0.2.2.UPF
Ge 72.63 ge_pbe_v1.4.uspp.F.UPF
Ir 192.217 Ir_pbe_v1.2.uspp.F.UPF
O 15.999 O.pbe-n-kjpaw_psl.0.1.UPF

K_POINTS gamma

CELL_PARAMETERS angstrom
7.24822352000000 0.00000000000000 0.00000000000000
3.62411176000000 6.27714570062786 0.00000000000000
3.62411176000000 2.09238190020929 5.91814972187993

ATOMIC_POSITIONS angstrom
In 7.2482235200 2.0883561574 1.4766908005 
In 7.2482235200 6.2811714434 4.4414589214 
In 5.4326812445 5.2329676219 1.4766908005 
In 9.0637657955 3.1365599789 4.4414589214 
In 5.4326812445 3.1365599789 4.4414589214 
In 9.0637657955 5.2329676219 1.4766908005 
Ge 3.6241117600 2.0923819002 1.4795374305 
Ge 10.8723352800 6.2771457006 4.4386122914 
Ir 0.0000000000 0.0000000000 0.0000000000 
O 5.1159157561 2.9536753389 2.0885683002 
O 9.3805349080 5.4158543543 3.8295873398 
O 7.2482198959 4.1847617080 5.5706063795 
O 7.2482198959 6.6469386310 2.0885623820 
O 7.2482198959 4.1847658928 0.3475433424 
O 7.2482271441 1.7225889698 3.8295873398 
O 9.3805276598 2.9536732466 2.0885623820 
O 5.1159193802 5.4158543543 3.8295873398 

