&CONTROL
   calculation      = 'scf'
   verbosity        = 'high'
   nstep            = 1
   tstress          = .true.
   tprnfor          = .true.
   outdir           = 'calculations/'
   prefix           = 'myprefix'
   pseudo_dir       = '/home/pragov/projects/rrg-bengioy-ad/pragov/crystal_structure_design/SSSP'
/
&SYSTEM
   ecutwfc          = 30
   ecutrho          = 240
   occupations      = 'smearing'
   degauss          = 0.001
   smearing         = 'mp'
   nspin            = 1
   ntyp             = 4
   nat              = 20
   ibrav            = 0
/
&ELECTRONS
   electron_maxstep = 100
   mixing_mode      = 'plain'
   mixing_beta      = 0.7
   diagonalization  = 'david'
/
&IONS
/
&CELL
/

ATOMIC_SPECIES
Sr 87.62 Sr_pbe_v1.uspp.F.UPF
Er 167.259 Er.GGA-PBE-paw-v1.0.UPF
Bi 208.9804 Bi_pbe_v1.uspp.F.UPF
O 15.999 O.pbe-n-kjpaw_psl.0.1.UPF

K_POINTS gamma

CELL_PARAMETERS angstrom
5.92615669000000 0.00000000000000 0.00000000000000
0.00000000000000 6.04942000000000 0.00000000000000
-0.01053488838186 0.00000000000000 8.45034247317561

ATOMIC_POSITIONS angstrom
Sr 0.0636316405 2.7607738054 2.1180783409 
Sr 5.8519901611 3.2886461946 6.3322641323 
Sr 2.8941792603 5.7854838054 2.1070928957 
Sr 3.0214425413 0.2639361946 6.3432495775 
Er -0.0052674442 0.0000000000 4.2251712366 
Er 2.9630783450 3.0247100000 0.0000000000 
Bi 0.0000000000 0.0000000000 0.0000000000 
Bi 2.9578109008 3.0247100000 4.2251712366 
O 5.3920919457 0.1859954673 2.0673931867 
O 0.5235298559 5.8634245327 6.3829492864 
O 3.4918756451 3.2107054673 2.1577780498 
O 2.4237461566 2.8387145327 6.2925644233 
O 1.1894594727 4.3122504045 0.4160779627 
O 4.7261623289 1.7371695955 8.0342645105 
O 1.7683514281 1.2875404045 3.8090932739 
O 4.1472703735 4.7618795955 4.6412491993 
O 1.7094384115 1.2273426261 0.3921719438 
O 4.2061833901 4.8220773739 8.0581705293 
O 1.2483724893 4.2520526261 3.8329992928 
O 4.6672493124 1.7973673739 4.6173431804 

