&CONTROL
   calculation      = 'scf'
   verbosity        = 'high'
   nstep            = 1
   tstress          = .true.
   tprnfor          = .true.
   outdir           = 'calculations/'
   prefix           = 'myprefix'
   pseudo_dir       = '/home/pragov/projects/rrg-bengioy-ad/pragov/crystal_structure_design/SSSP'
/
&SYSTEM
   ecutwfc          = 30
   ecutrho          = 240
   occupations      = 'smearing'
   degauss          = 0.001
   smearing         = 'mp'
   nspin            = 1
   ntyp             = 3
   nat              = 14
   ibrav            = 0
/
&ELECTRONS
   electron_maxstep = 100
   mixing_mode      = 'plain'
   mixing_beta      = 0.7
   diagonalization  = 'david'
/
&IONS
/
&CELL
/

ATOMIC_SPECIES
Al 26.9815385 Al.pbe-n-kjpaw_psl.1.0.0.UPF
Fe 55.845 Fe.pbe-spn-kjpaw_psl.0.2.1.UPF
O 15.999 O.pbe-n-kjpaw_psl.0.1.UPF

K_POINTS gamma

CELL_PARAMETERS angstrom
5.92118632000000 0.00000000000000 0.00000000000000
2.96059316000000 5.12789777366089 0.00000000000000
2.96059316000000 1.70929925788697 4.83462838531602

ATOMIC_POSITIONS angstrom
Al 2.9605931600 1.7092992579 1.2086570963 
Al 0.0000000000 0.0000000000 0.0000000000 
Fe 5.9211863200 1.7092992579 3.0216427408 
Fe 5.9211863200 3.4185985158 0.6043285482 
Fe 4.4408897400 4.2732481447 3.0216427408 
Fe 7.4014829000 4.2732481447 3.0216427408 
O 8.8817794800 3.4115835516 4.2327800015 
O 5.9211863200 3.4185985158 4.2377403302 
O 7.4075580372 2.5604414048 1.8105054801 
O 4.4348146028 2.5604414048 1.8105054801 
O 7.3954077628 5.9860548847 4.2327800015 
O 10.3681511972 5.9860548847 4.2327800015 
O 8.8817794800 5.1278977737 1.8055451514 
O 5.9211863200 5.1349127378 1.8105054801 

