&CONTROL
   calculation      = 'scf'
   verbosity        = 'high'
   nstep            = 1
   tstress          = .true.
   tprnfor          = .true.
   outdir           = 'calculations/'
   prefix           = 'myprefix'
   pseudo_dir       = '/home/pragov/projects/rrg-bengioy-ad/pragov/crystal_structure_design/SSSP'
/
&SYSTEM
   ecutwfc          = 30
   ecutrho          = 240
   occupations      = 'smearing'
   degauss          = 0.001
   smearing         = 'mp'
   nspin            = 1
   ntyp             = 3
   nat              = 12
   ibrav            = 0
/
&ELECTRONS
   electron_maxstep = 100
   mixing_mode      = 'plain'
   mixing_beta      = 0.7
   diagonalization  = 'david'
/
&IONS
/
&CELL
/

ATOMIC_SPECIES
Sr 87.62 Sr_pbe_v1.uspp.F.UPF
Mo 95.95 Mo_ONCV_PBE-1.0.oncvpsp.upf
O 15.999 O.pbe-n-kjpaw_psl.0.1.UPF

K_POINTS gamma

CELL_PARAMETERS angstrom
5.44319553000000 0.00000000000000 0.00000000000000
-0.00702008119312 5.49978307968512 0.00000000000000
-2.71808748999572 -2.74989098720838 6.12424116633195

ATOMIC_POSITIONS angstrom
Sr -0.0017548441 1.3749461854 4.6046221821 
Sr 2.7198428029 1.3749459070 1.5196189842 
Mo 2.7233529868 -1.3749453313 4.5555152605 
Mo -0.0052650280 4.1248374238 1.5687259058 
O 4.1355975955 3.3735380915 0.5736388686 
O 1.4210201566 -2.1262445391 5.5506022977 
O 0.7618859231 2.8147308851 2.5501447391 
O -0.7653957685 -0.0648388850 2.5501447391 
O 3.4834837273 2.8147309775 3.5740964272 
O -1.4175096367 -0.6236459990 5.5506022977 
O 1.2970678022 4.8761366316 0.5736388686 
O 1.9562020357 -0.0648387926 3.5740964272 

