&CONTROL
   calculation      = 'scf'
   verbosity        = 'high'
   nstep            = 1
   tstress          = .true.
   tprnfor          = .true.
   outdir           = 'calculations/'
   prefix           = 'myprefix'
   pseudo_dir       = '/home/pragov/projects/rrg-bengioy-ad/pragov/crystal_structure_design/SSSP'
/
&SYSTEM
   ecutwfc          = 30
   ecutrho          = 240
   occupations      = 'smearing'
   degauss          = 0.001
   smearing         = 'mp'
   nspin            = 1
   ntyp             = 2
   nat              = 12
   ibrav            = 0
/
&ELECTRONS
   electron_maxstep = 100
   mixing_mode      = 'plain'
   mixing_beta      = 0.7
   diagonalization  = 'david'
/
&IONS
/
&CELL
/

ATOMIC_SPECIES
Sc 44.955908 Sc_ONCV_PBE-1.0.oncvpsp.upf
Au 196.966569 Au_ONCV_PBE-1.0.oncvpsp.upf

K_POINTS gamma

CELL_PARAMETERS angstrom
4.68145000000000 0.00000000000000 0.00000000000000
0.00000000000000 6.61575400000000 0.00000000000000
0.00000000000000 0.00000000000000 8.39228400000000

ATOMIC_POSITIONS angstrom
Sc 3.5110875000 5.6042779867 7.7551921524 
Sc 1.1703625000 1.0114760133 0.6370918476 
Sc 1.1703625000 4.3193530133 3.5590501524 
Sc 3.5110875000 2.2964009867 4.8332338476 
Sc 3.5110875000 6.4977487959 2.6547647669 
Sc 1.1703625000 0.1180052041 5.7375192331 
Sc 1.1703625000 3.4258822041 6.8509067669 
Sc 3.5110875000 3.1898717959 1.5413772331 
Au 3.5110875000 5.0115725858 5.0447277967 
Au 1.1703625000 1.6041814142 3.3475562033 
Au 1.1703625000 4.9120584142 0.8485857967 
Au 3.5110875000 1.7036955858 7.5436982033 

