&CONTROL
   calculation      = 'scf'
   verbosity        = 'high'
   nstep            = 1
   tstress          = .true.
   tprnfor          = .true.
   outdir           = 'calculations/'
   prefix           = 'myprefix'
   pseudo_dir       = '/home/pragov/projects/rrg-bengioy-ad/pragov/crystal_structure_design/SSSP'
/
&SYSTEM
   ecutwfc          = 30
   ecutrho          = 240
   occupations      = 'smearing'
   degauss          = 0.001
   smearing         = 'mp'
   nspin            = 1
   ntyp             = 4
   nat              = 10
   ibrav            = 0
/
&ELECTRONS
   electron_maxstep = 100
   mixing_mode      = 'plain'
   mixing_beta      = 0.7
   diagonalization  = 'david'
/
&IONS
/
&CELL
/

ATOMIC_SPECIES
K 39.0983 K.pbe-spn-kjpaw_psl.1.0.0.UPF
Na 22.98976928 na_pbe_v1.5.uspp.F.UPF
As 74.921595 As.pbe-n-rrkjus_psl.0.2.UPF
Cl 35.45 cl_pbe_v1.4.uspp.F.UPF

K_POINTS gamma

CELL_PARAMETERS angstrom
7.41103910000000 0.00000000000000 0.00000000000000
3.70551955000000 6.41814812903976 0.00000000000000
3.70551955000000 2.13938270967992 6.05108808627169

ATOMIC_POSITIONS angstrom
K 11.1165586500 6.4181481290 4.5383160647 
K 3.7055195500 2.1393827097 1.5127720216 
Na 7.4110391000 4.2787654194 3.0255440431 
As 0.0000000000 0.0000000000 0.0000000000 
Cl 7.4110391000 2.0440689312 1.4453750025 
Cl 5.4757351715 3.1614171753 4.6057130838 
Cl 7.4110391000 6.5134619075 4.6057130838 
Cl 5.4757351715 5.3961136634 1.4453750025 
Cl 9.3463430285 3.1614171753 4.6057130838 
Cl 9.3463430285 5.3961136634 1.4453750025 

