&CONTROL
   calculation      = 'scf'
   verbosity        = 'high'
   nstep            = 1
   tstress          = .true.
   tprnfor          = .true.
   outdir           = 'calculations/'
   prefix           = 'myprefix'
   pseudo_dir       = '/home/pragov/projects/rrg-bengioy-ad/pragov/crystal_structure_design/SSSP'
/
&SYSTEM
   ecutwfc          = 30
   ecutrho          = 240
   occupations      = 'smearing'
   degauss          = 0.001
   smearing         = 'mp'
   nspin            = 1
   ntyp             = 2
   nat              = 8
   ibrav            = 0
/
&ELECTRONS
   electron_maxstep = 100
   mixing_mode      = 'plain'
   mixing_beta      = 0.7
   diagonalization  = 'david'
/
&IONS
/
&CELL
/

ATOMIC_SPECIES
K 39.0983 K.pbe-spn-kjpaw_psl.1.0.0.UPF
Br 79.904 br_pbe_v1.4.uspp.F.UPF

K_POINTS gamma

CELL_PARAMETERS angstrom
6.45091005000000 0.00000000000000 0.00000000000000
-3.22545507862801 5.58665194986620 0.00000000000000
0.00000000000000 0.00000000000000 7.71553300000000

ATOMIC_POSITIONS angstrom
K 3.2254582326 1.8622154544 1.9288832500 
K -0.0000032612 3.7244364955 5.7866497500 
Br 4.8312703784 0.9350993900 5.7866497500 
Br 1.6196332027 0.9350993900 5.7866497500 
Br 3.2254517639 3.7164587565 5.7866497500 
Br -1.6058154070 4.6515525598 1.9288832500 
Br 1.6058217686 4.6515525598 1.9288832500 
Br 0.0000032075 1.8701931934 1.9288832500 

