&CONTROL
   calculation      = 'scf'
   verbosity        = 'high'
   nstep            = 1
   tstress          = .true.
   tprnfor          = .true.
   outdir           = 'calculations/'
   prefix           = 'myprefix'
   pseudo_dir       = '/home/pragov/projects/rrg-bengioy-ad/pragov/crystal_structure_design/SSSP'
/
&SYSTEM
   ecutwfc          = 30
   ecutrho          = 240
   occupations      = 'smearing'
   degauss          = 0.001
   smearing         = 'mp'
   nspin            = 1
   ntyp             = 2
   nat              = 20
   ibrav            = 0
/
&ELECTRONS
   electron_maxstep = 100
   mixing_mode      = 'plain'
   mixing_beta      = 0.7
   diagonalization  = 'david'
/
&IONS
/
&CELL
/

ATOMIC_SPECIES
Y 88.90584 Y_pbe_v1.uspp.F.UPF
B 10.81 b_pbe_v1.4.uspp.F.UPF

K_POINTS gamma

CELL_PARAMETERS angstrom
7.11262800000000 0.00000000000000 0.00000000000000
0.00000000000000 7.11262800000000 0.00000000000000
0.00000000000000 0.00000000000000 4.02709000000000

ATOMIC_POSITIONS angstrom
Y 1.2943916066 4.8507056066 0.0000000000 
Y 4.8507056066 5.8182363934 0.0000000000 
Y 2.2619223934 1.2943916066 0.0000000000 
Y 5.8182363934 2.2619223934 0.0000000000 
B 2.3046123867 3.2816456445 2.0135450000 
B 4.8080156133 3.8309823555 2.0135450000 
B 3.8309823555 2.3046123867 2.0135450000 
B 3.2816456445 4.8080156133 2.0135450000 
B 0.0000000000 0.0000000000 0.8177731121 
B 3.5563140000 3.5563140000 3.2093168879 
B 0.0000000000 0.0000000000 3.2093168879 
B 3.5563140000 3.5563140000 0.8177731121 
B 4.1758523493 0.6195383493 2.0135450000 
B 0.6195383493 2.9367756507 2.0135450000 
B 6.4930896507 4.1758523493 2.0135450000 
B 2.9367756507 6.4930896507 2.0135450000 
B 0.2746683555 1.2517016133 2.0135450000 
B 1.2517016133 6.8379596445 2.0135450000 
B 5.8609263867 0.2746683555 2.0135450000 
B 6.8379596445 5.8609263867 2.0135450000 

