&CONTROL
   calculation      = 'scf'
   verbosity        = 'high'
   nstep            = 1
   tstress          = .true.
   tprnfor          = .true.
   outdir           = 'calculations/'
   prefix           = 'myprefix'
   pseudo_dir       = '/home/pragov/projects/rrg-bengioy-ad/pragov/crystal_structure_design/SSSP'
/
&SYSTEM
   ecutwfc          = 30
   ecutrho          = 240
   occupations      = 'smearing'
   degauss          = 0.001
   smearing         = 'mp'
   nspin            = 1
   ntyp             = 4
   nat              = 16
   ibrav            = 0
/
&ELECTRONS
   electron_maxstep = 100
   mixing_mode      = 'plain'
   mixing_beta      = 0.7
   diagonalization  = 'david'
/
&IONS
/
&CELL
/

ATOMIC_SPECIES
Cs 132.90545196 Cs_pbe_v1.uspp.F.UPF
Ga 69.723 Ga.pbe-dn-kjpaw_psl.1.0.0.UPF
Fe 55.845 Fe.pbe-spn-kjpaw_psl.0.2.1.UPF
S 32.06 s_pbe_v1.4.uspp.F.UPF

K_POINTS gamma

CELL_PARAMETERS angstrom
5.87073700000000 0.00000000000000 0.00000000000000
1.43597899882240 7.18829199715345 0.00000000000000
1.57267600111568 0.17915099894857 12.34369600257916

ATOMIC_POSITIONS angstrom
Cs 1.5397803885 0.3499644591 8.3669521488 
Cs 4.4026203121 3.8593408766 2.1830073254 
Cs 4.4727560961 3.5066948489 10.1603060226 
Cs 7.3438034363 7.0178143938 3.9771018209 
Ga 2.9718703834 3.6537767927 6.1536410497 
Ga 5.9078103034 3.7160908299 6.1897093294 
Ga 1.4666868593 0.0317748089 0.0189969481 
Fe 7.4124689198 7.3333515642 12.3250570216 
S 7.4092627137 4.1283292260 7.8903003277 
S 2.9731654077 0.4424705653 1.7163168670 
S 7.4067645799 1.8803764016 11.8450230278 
S 4.4055592786 5.3864480664 5.6716073771 
S 5.9161233747 6.9216593225 10.6279222582 
S 1.4695659897 3.2413014744 4.4545559823 
S 4.4737225752 1.9826355171 6.6712122231 
S 1.4631636296 5.4874930772 0.4978459472 

