&CONTROL
   calculation      = 'scf'
   verbosity        = 'high'
   nstep            = 1
   tstress          = .true.
   tprnfor          = .true.
   outdir           = 'calculations/'
   prefix           = 'myprefix'
   pseudo_dir       = '/home/pragov/projects/rrg-bengioy-ad/pragov/crystal_structure_design/SSSP'
/
&SYSTEM
   ecutwfc          = 30
   ecutrho          = 240
   occupations      = 'smearing'
   degauss          = 0.001
   smearing         = 'mp'
   nspin            = 1
   ntyp             = 3
   nat              = 5
   ibrav            = 0
/
&ELECTRONS
   electron_maxstep = 100
   mixing_mode      = 'plain'
   mixing_beta      = 0.7
   diagonalization  = 'david'
/
&IONS
/
&CELL
/

ATOMIC_SPECIES
Sr 87.62 Sr_pbe_v1.uspp.F.UPF
Mg 24.305 Mg.pbe-n-kjpaw_psl.0.3.0.UPF
N 14.007 N.pbe-n-radius_5.UPF

K_POINTS gamma

CELL_PARAMETERS angstrom
3.64360656000000 0.00000000000000 0.00000000000000
-1.82180383678895 3.15545552089331 0.00000000000000
0.00000000000000 0.00000000000000 6.39976300000000

ATOMIC_POSITIONS angstrom
Sr 0.0000000000 0.0000000000 3.1998815000 
Mg -0.0000021930 2.1036380657 5.5588597409 
Mg 1.8218049162 1.0518174551 0.8409032591 
N -0.0000021930 2.1036380657 1.4113845327 
N 1.8218049162 1.0518174551 4.9883784673 

