&CONTROL
   calculation      = 'scf'
   verbosity        = 'high'
   nstep            = 1
   tstress          = .true.
   tprnfor          = .true.
   outdir           = 'calculations/'
   prefix           = 'myprefix'
   pseudo_dir       = '/home/pragov/projects/rrg-bengioy-ad/pragov/crystal_structure_design/SSSP'
/
&SYSTEM
   ecutwfc          = 30
   ecutrho          = 240
   occupations      = 'smearing'
   degauss          = 0.001
   smearing         = 'mp'
   nspin            = 1
   ntyp             = 3
   nat              = 4
   ibrav            = 0
/
&ELECTRONS
   electron_maxstep = 100
   mixing_mode      = 'plain'
   mixing_beta      = 0.7
   diagonalization  = 'david'
/
&IONS
/
&CELL
/

ATOMIC_SPECIES
La 138.90547 La.GGA-PBE-paw-v1.0.UPF
Pm 144.91276 Pm.GGA-PBE-paw-v1.0.UPF
Tl 204.38 Tl_pbe_v1.2.uspp.F.UPF

K_POINTS gamma

CELL_PARAMETERS angstrom
5.58268582000000 0.00000000000000 0.00000000000000
2.79134291000000 4.83474774146716 0.00000000000000
2.79134291000000 1.61158258048905 4.55824388442370

ATOMIC_POSITIONS angstrom
La 5.5826858200 3.2231651610 2.2791219422 
Pm 0.0000000000 0.0000000000 0.0000000000 
Tl 8.3740287300 4.8347477415 3.4186829133 
Tl 2.7913429100 1.6115825805 1.1395609711 

