&CONTROL
   calculation      = 'scf'
   verbosity        = 'high'
   nstep            = 1
   tstress          = .true.
   tprnfor          = .true.
   outdir           = 'calculations/'
   prefix           = 'myprefix'
   pseudo_dir       = '/home/pragov/projects/rrg-bengioy-ad/pragov/crystal_structure_design/SSSP'
/
&SYSTEM
   ecutwfc          = 30
   ecutrho          = 240
   occupations      = 'smearing'
   degauss          = 0.001
   smearing         = 'mp'
   nspin            = 1
   ntyp             = 3
   nat              = 12
   ibrav            = 0
/
&ELECTRONS
   electron_maxstep = 100
   mixing_mode      = 'plain'
   mixing_beta      = 0.7
   diagonalization  = 'david'
/
&IONS
/
&CELL
/

ATOMIC_SPECIES
Ag 107.8682 Ag_ONCV_PBE-1.0.oncvpsp.upf
Au 196.966569 Au_ONCV_PBE-1.0.oncvpsp.upf
Cl 35.45 cl_pbe_v1.4.uspp.F.UPF

K_POINTS gamma

CELL_PARAMETERS angstrom
6.97006202000000 0.00000000000000 0.00000000000000
5.58822065091584 4.16575977695837 0.00000000000000
5.64146792368824 1.87135460917185 11.79392500282718

ATOMIC_POSITIONS angstrom
Ag 10.5216535242 3.4519950011 8.8454437521 
Ag 7.6780970704 2.5851193850 2.9484812507 
Au 0.0000000000 0.0000000000 0.0000000000 
Au 2.8207339618 0.9356773046 5.8969625014 
Cl 1.8460841482 0.8775085947 1.1175805393 
Cl 13.3744698256 4.7016369892 4.7793819621 
Cl 9.5680168048 4.0422683489 4.1696596273 
Cl 5.2919746824 2.6238447679 1.7273028741 
Cl 8.6317337898 1.9948460372 7.6242653756 
Cl 16.3536664464 5.1596057914 10.6763444635 
Cl 4.8252807690 1.3354773969 7.0145430408 
Cl 12.9077759122 3.4132696183 10.0666221287 

