&CONTROL
   calculation      = 'scf'
   verbosity        = 'high'
   nstep            = 1
   tstress          = .true.
   tprnfor          = .true.
   outdir           = 'calculations/'
   prefix           = 'myprefix'
   pseudo_dir       = '/home/pragov/projects/rrg-bengioy-ad/pragov/crystal_structure_design/SSSP'
/
&SYSTEM
   ecutwfc          = 30
   ecutrho          = 240
   occupations      = 'smearing'
   degauss          = 0.001
   smearing         = 'mp'
   nspin            = 1
   ntyp             = 4
   nat              = 20
   ibrav            = 0
/
&ELECTRONS
   electron_maxstep = 100
   mixing_mode      = 'plain'
   mixing_beta      = 0.7
   diagonalization  = 'david'
/
&IONS
/
&CELL
/

ATOMIC_SPECIES
Sr 87.62 Sr_pbe_v1.uspp.F.UPF
Ca 40.078 Ca_pbe_v1.uspp.F.UPF
Ru 101.07 Ru_ONCV_PBE-1.0.oncvpsp.upf
O 15.999 O.pbe-n-kjpaw_psl.0.1.UPF

K_POINTS gamma

CELL_PARAMETERS angstrom
5.53011300000000 0.00000000000000 0.00000000000000
0.00000000000000 5.60654000000000 0.00000000000000
0.00000000000000 0.00000000000000 7.85578800000000

ATOMIC_POSITIONS angstrom
Sr 1.4303526672 3.0199795906 0.0000000000 
Sr 4.0997603328 0.2167095906 0.0000000000 
Ca 1.3387076346 2.5213507426 3.9278940000 
Ca 4.1914053654 5.3246207426 3.9278940000 
Ru 4.1414186740 2.7979045412 5.8564271077 
Ru 1.3886943260 5.6011745412 1.9993608923 
Ru 4.1414186740 2.7979045412 1.9993608923 
Ru 1.3886943260 5.6011745412 5.8564271077 
O 3.0163393046 4.4474439204 6.1346948302 
O 2.5137736954 1.6441739204 1.7210931698 
O 5.2758826452 1.1508152200 2.3472466081 
O 0.2542303548 3.9540852200 5.5085413919 
O 5.2758826452 1.1508152200 5.5085413919 
O 0.2542303548 3.9540852200 2.3472466081 
O 3.0163393046 4.4474439204 1.7210931698 
O 2.5137736954 1.6441739204 6.1346948302 
O 1.0136310021 5.5608971579 0.0000000000 
O 4.5164819979 2.7576271579 0.0000000000 
O 1.8723192982 0.1381451456 3.9278940000 
O 3.6577937018 2.9414151456 3.9278940000 

