&CONTROL
   calculation      = 'scf'
   verbosity        = 'high'
   nstep            = 1
   tstress          = .true.
   tprnfor          = .true.
   outdir           = 'calculations/'
   prefix           = 'myprefix'
   pseudo_dir       = '/home/pragov/projects/rrg-bengioy-ad/pragov/crystal_structure_design/SSSP'
/
&SYSTEM
   ecutwfc          = 30
   ecutrho          = 240
   occupations      = 'smearing'
   degauss          = 0.001
   smearing         = 'mp'
   nspin            = 1
   ntyp             = 3
   nat              = 12
   ibrav            = 0
/
&ELECTRONS
   electron_maxstep = 100
   mixing_mode      = 'plain'
   mixing_beta      = 0.7
   diagonalization  = 'david'
/
&IONS
/
&CELL
/

ATOMIC_SPECIES
Yb 173.054 Yb.GGA-PBE-paw-v1.0.UPF
Sn 118.71 Sn_pbe_v1.uspp.F.UPF
Pd 106.42 Pd_ONCV_PBE-1.0.oncvpsp.upf

K_POINTS gamma

CELL_PARAMETERS angstrom
4.54933300000000 0.00000000000000 0.00000000000000
0.00000000000000 7.23642900000000 0.00000000000000
0.00000000000000 0.00000000000000 8.19801700000000

ATOMIC_POSITIONS angstrom
Yb 1.1373332500 3.8243224708 1.4923342226 
Yb 3.4119997500 3.4121065292 6.7056827774 
Yb 1.1373332500 0.2061079708 2.6066742774 
Yb 3.4119997500 7.0303210292 5.5913427226 
Sn 1.1373332500 1.1397882225 7.6656951621 
Sn 3.4119997500 2.4784262775 3.5666866621 
Sn 1.1373332500 4.7580027225 4.6313303379 
Sn 3.4119997500 6.0966407775 0.5323218379 
Pd 3.4119997500 1.6310983330 0.9795564573 
Pd 1.1373332500 1.9871161670 5.0785649573 
Pd 3.4119997500 5.2493128330 3.1194520427 
Pd 1.1373332500 5.6053306670 7.2184605427 

