&CONTROL
   calculation      = 'scf'
   verbosity        = 'high'
   nstep            = 1
   tstress          = .true.
   tprnfor          = .true.
   outdir           = 'calculations/'
   prefix           = 'myprefix'
   pseudo_dir       = '/home/pragov/projects/rrg-bengioy-ad/pragov/crystal_structure_design/SSSP'
/
&SYSTEM
   ecutwfc          = 30
   ecutrho          = 240
   occupations      = 'smearing'
   degauss          = 0.001
   smearing         = 'mp'
   nspin            = 1
   ntyp             = 3
   nat              = 18
   ibrav            = 0
/
&ELECTRONS
   electron_maxstep = 100
   mixing_mode      = 'plain'
   mixing_beta      = 0.7
   diagonalization  = 'david'
/
&IONS
/
&CELL
/

ATOMIC_SPECIES
K 39.0983 K.pbe-spn-kjpaw_psl.1.0.0.UPF
Ge 72.63 ge_pbe_v1.4.uspp.F.UPF
F 18.998403163 f_pbe_v1.4.uspp.F.UPF

K_POINTS gamma

CELL_PARAMETERS angstrom
5.85285738000000 0.00000000000000 0.00000000000000
-2.92642807250794 5.06872353231639 0.00000000000000
0.00000000000000 0.00000000000000 9.55240000000000

ATOMIC_POSITIONS angstrom
K 0.0000000000 0.0000000000 0.9010969968 
K 0.0000000000 0.0000000000 5.6772969968 
K 2.9264318223 1.6895728212 3.5457362512 
K -0.0000025148 3.3791507111 8.3219362512 
Ge 2.9264318223 1.6895728212 7.2379872136 
Ge -0.0000025148 3.3791507111 2.4617872136 
F 1.6367021136 2.4341987204 6.1610687424 
F -1.2897265520 2.6345248119 1.3848687424 
F 0.0000005931 4.8683974409 1.3848687424 
F 2.9264287144 0.2003260914 6.1610687424 
F 4.2161558595 2.4341987204 6.1610687424 
F 1.2897271939 2.6345248119 1.3848687424 
F -1.3229793775 4.1429718664 3.4765577704 
F 1.6034430677 0.9257516659 8.2527577704 
F 2.9264261555 3.2172252692 8.2527577704 
F 0.0000031520 1.8514982632 3.4765577704 
F 1.3229862397 4.1429718664 3.4765577704 
F 4.2494086850 0.9257516659 8.2527577704 

