&CONTROL
   calculation      = 'scf'
   verbosity        = 'high'
   nstep            = 1
   tstress          = .true.
   tprnfor          = .true.
   outdir           = 'calculations/'
   prefix           = 'myprefix'
   pseudo_dir       = '/home/pragov/projects/rrg-bengioy-ad/pragov/crystal_structure_design/SSSP'
/
&SYSTEM
   ecutwfc          = 30
   ecutrho          = 240
   occupations      = 'smearing'
   degauss          = 0.001
   smearing         = 'mp'
   nspin            = 1
   ntyp             = 3
   nat              = 18
   ibrav            = 0
/
&ELECTRONS
   electron_maxstep = 100
   mixing_mode      = 'plain'
   mixing_beta      = 0.7
   diagonalization  = 'david'
/
&IONS
/
&CELL
/

ATOMIC_SPECIES
La 138.90547 La.GGA-PBE-paw-v1.0.UPF
Sb 121.76 sb_pbe_v1.4.uspp.F.UPF
Br 79.904 br_pbe_v1.4.uspp.F.UPF

K_POINTS gamma

CELL_PARAMETERS angstrom
9.67083630000000 0.00000000000000 0.00000000000000
-4.83541845111975 8.37518973778913 0.00000000000000
0.00000000000000 0.00000000000000 6.80231200000000

ATOMIC_POSITIONS angstrom
La 2.6562112398 0.0000000000 1.7005780000 
La 6.1635235515 6.0748433740 5.1017340000 
La 3.5073123117 6.0748433740 1.7005780000 
La 1.3281055372 2.3003463638 5.1017340000 
La 7.0146250602 0.0000000000 5.1017340000 
La -1.3281057026 2.3003463638 1.7005780000 
La 4.8354228850 2.7917271209 3.4011560000 
La -0.0000050362 5.5834626169 0.0000000000 
La -0.0000050362 5.5834626169 3.4011560000 
La 4.8354228850 2.7917271209 0.0000000000 
Sb 2.9834479773 5.1674836930 5.1017340000 
Sb 6.6873879511 5.1674836930 1.7005780000 
Sb 5.9668963263 0.0000000000 1.7005780000 
Sb 3.7039399737 0.0000000000 5.1017340000 
Sb -1.8519701022 3.2077060448 5.1017340000 
Sb 1.8519698715 3.2077060448 1.7005780000 
Br 0.0000000000 0.0000000000 3.4011560000 
Br 0.0000000000 0.0000000000 0.0000000000 

