&CONTROL
   calculation      = 'scf'
   verbosity        = 'high'
   nstep            = 1
   tstress          = .true.
   tprnfor          = .true.
   outdir           = 'calculations/'
   prefix           = 'myprefix'
   pseudo_dir       = '/home/pragov/projects/rrg-bengioy-ad/pragov/crystal_structure_design/SSSP'
/
&SYSTEM
   ecutwfc          = 30
   ecutrho          = 240
   occupations      = 'smearing'
   degauss          = 0.001
   smearing         = 'mp'
   nspin            = 1
   ntyp             = 2
   nat              = 4
   ibrav            = 0
/
&ELECTRONS
   electron_maxstep = 100
   mixing_mode      = 'plain'
   mixing_beta      = 0.7
   diagonalization  = 'david'
/
&IONS
/
&CELL
/

ATOMIC_SPECIES
Mg 24.305 Mg.pbe-n-kjpaw_psl.0.3.0.UPF
Al 26.9815385 Al.pbe-n-kjpaw_psl.1.0.0.UPF

K_POINTS gamma

CELL_PARAMETERS angstrom
4.90067991000000 0.00000000000000 0.00000000000000
2.45033995500000 4.24411329787604 0.00000000000000
2.45033995500000 1.41470443262535 4.00138839073620

ATOMIC_POSITIONS angstrom
Mg 0.0000000000 0.0000000000 0.0000000000 
Mg 2.4503399550 1.4147044326 1.0003470977 
Mg 7.3510198650 4.2441132979 3.0010412931 
Al 4.9006799100 2.8294088653 2.0006941954 

