&CONTROL
   calculation      = 'scf'
   verbosity        = 'high'
   nstep            = 1
   tstress          = .true.
   tprnfor          = .true.
   outdir           = 'calculations/'
   prefix           = 'myprefix'
   pseudo_dir       = '/home/pragov/projects/rrg-bengioy-ad/pragov/crystal_structure_design/SSSP'
/
&SYSTEM
   ecutwfc          = 30
   ecutrho          = 240
   occupations      = 'smearing'
   degauss          = 0.001
   smearing         = 'mp'
   nspin            = 1
   ntyp             = 2
   nat              = 18
   ibrav            = 0
/
&ELECTRONS
   electron_maxstep = 100
   mixing_mode      = 'plain'
   mixing_beta      = 0.7
   diagonalization  = 'david'
/
&IONS
/
&CELL
/

ATOMIC_SPECIES
Ce 140.116 Ce.GGA-PBE-paw-v1.0.UPF
Ir 192.217 Ir_pbe_v1.2.uspp.F.UPF

K_POINTS gamma

CELL_PARAMETERS angstrom
13.55807844000000 0.00000000000000 0.00000000000000
12.51181264615239 5.22264638787405 0.00000000000000
12.51181177242383 2.50652249919520 4.58185299847481

ATOMIC_POSITIONS angstrom
Ce 36.6412361133 7.3404303379 4.3514087019 
Ce 1.9404667453 0.3887385492 0.2304442966 
Ce 32.9050997536 6.5919608104 3.9077158031 
Ce 5.6766031050 1.1372080767 0.6741371954 
Ir 19.2908514293 3.8645844435 2.2909264992 
Ir 27.8628570070 5.5818357285 3.3089134347 
Ir 10.7188458516 2.1473331585 1.2729395637 
Ir 23.5680575899 4.7214478355 2.7988753045 
Ir 15.0136452687 3.0077210515 1.7829776940 
Ir 13.0349455431 2.6113231939 0.0000000000 
Ir 12.5118122093 3.8645844435 2.2909264992 
Ir 13.0349451062 1.2532612496 2.2909264992 
Ir 21.2835070281 5.6307407103 1.7797658150 
Ir 21.2835065884 4.2637780280 4.0857070465 
Ir 21.8100685380 3.0023029042 1.7797658150 
Ir 17.2981958305 2.0984281768 2.8020871835 
Ir 17.2981962702 3.4653908591 0.4961459519 
Ir 16.7716343205 4.7268659829 2.8020871835 

