&CONTROL
   calculation      = 'scf'
   verbosity        = 'high'
   nstep            = 1
   tstress          = .true.
   tprnfor          = .true.
   outdir           = 'calculations/'
   prefix           = 'myprefix'
   pseudo_dir       = '/home/pragov/projects/rrg-bengioy-ad/pragov/crystal_structure_design/SSSP'
/
&SYSTEM
   ecutwfc          = 30
   ecutrho          = 240
   occupations      = 'smearing'
   degauss          = 0.001
   smearing         = 'mp'
   nspin            = 1
   ntyp             = 3
   nat              = 18
   ibrav            = 0
/
&ELECTRONS
   electron_maxstep = 100
   mixing_mode      = 'plain'
   mixing_beta      = 0.7
   diagonalization  = 'david'
/
&IONS
/
&CELL
/

ATOMIC_SPECIES
K 39.0983 K.pbe-spn-kjpaw_psl.1.0.0.UPF
Sn 118.71 Sn_pbe_v1.uspp.F.UPF
Br 79.904 br_pbe_v1.4.uspp.F.UPF

K_POINTS gamma

CELL_PARAMETERS angstrom
7.47987600000000 0.00000000000000 0.00000000000000
0.00000000000000 7.47987600000000 0.00000000000000
0.00000000000000 0.00000000000000 11.32189100000000

ATOMIC_POSITIONS angstrom
K 0.0000000000 3.7399380000 8.4914182500 
K 3.7399380000 0.0000000000 8.4914182500 
K 0.0000000000 3.7399380000 2.8304727500 
K 3.7399380000 0.0000000000 2.8304727500 
Sn 0.0000000000 0.0000000000 0.0000000000 
Sn 3.7399380000 3.7399380000 5.6609455000 
Br 0.0000000000 0.0000000000 2.6869904254 
Br 3.7399380000 3.7399380000 2.9739550746 
Br 0.0000000000 0.0000000000 8.6349005746 
Br 3.7399380000 3.7399380000 8.3479359254 
Br 1.4164416785 5.2385087170 0.0000000000 
Br 5.9813052830 2.3234963215 5.6609455000 
Br 6.0634343215 2.2413672830 0.0000000000 
Br 1.4985707170 5.1563796785 5.6609455000 
Br 2.3234963215 1.4985707170 5.6609455000 
Br 5.1563796785 5.9813052830 5.6609455000 
Br 2.2413672830 1.4164416785 0.0000000000 
Br 5.2385087170 6.0634343215 0.0000000000 

