&CONTROL
   calculation      = 'scf'
   verbosity        = 'high'
   nstep            = 1
   tstress          = .true.
   tprnfor          = .true.
   outdir           = 'calculations/'
   prefix           = 'myprefix'
   pseudo_dir       = '/home/pragov/projects/rrg-bengioy-ad/pragov/crystal_structure_design/SSSP'
/
&SYSTEM
   ecutwfc          = 30
   ecutrho          = 240
   occupations      = 'smearing'
   degauss          = 0.001
   smearing         = 'mp'
   nspin            = 1
   ntyp             = 4
   nat              = 12
   ibrav            = 0
/
&ELECTRONS
   electron_maxstep = 100
   mixing_mode      = 'plain'
   mixing_beta      = 0.7
   diagonalization  = 'david'
/
&IONS
/
&CELL
/

ATOMIC_SPECIES
K 39.0983 K.pbe-spn-kjpaw_psl.1.0.0.UPF
Na 22.98976928 na_pbe_v1.5.uspp.F.UPF
Ga 69.723 Ga.pbe-dn-kjpaw_psl.1.0.0.UPF
As 74.921595 As.pbe-n-rrkjus_psl.0.2.UPF

K_POINTS gamma

CELL_PARAMETERS angstrom
8.91038154000000 0.00000000000000 0.00000000000000
3.82963006858401 8.04542309180630 0.00000000000000
-6.31467693093287 -4.11032539458051 4.75657225289215

ATOMIC_POSITIONS angstrom
K -2.7836205533 -0.4725339907 3.5918208922 
K 3.5597637045 3.5923330525 3.5430374872 
K 2.8655709732 0.3427646448 1.2135347657 
K 9.2089552310 4.4076316879 1.1647513607 
Na 5.7487440887 5.0064859702 1.1891430632 
Na 0.6765905889 -1.0713882730 3.5674291897 
Ga -0.6212617156 0.9837744243 1.1891430632 
Ga -1.8637851468 2.9513232729 3.5674291897 
As 0.4900300840 1.8995807547 3.3396749971 
As 5.9353045936 2.0355169425 1.4168972558 
As 3.1463627121 6.4518496895 0.9613888706 
As 3.2789719655 -2.5167519923 3.7951833823 

