&CONTROL
   calculation      = 'scf'
   verbosity        = 'high'
   nstep            = 1
   tstress          = .true.
   tprnfor          = .true.
   outdir           = 'calculations/'
   prefix           = 'myprefix'
   pseudo_dir       = '/home/pragov/projects/rrg-bengioy-ad/pragov/crystal_structure_design/SSSP'
/
&SYSTEM
   ecutwfc          = 30
   ecutrho          = 240
   occupations      = 'smearing'
   degauss          = 0.001
   smearing         = 'mp'
   nspin            = 1
   ntyp             = 3
   nat              = 20
   ibrav            = 0
/
&ELECTRONS
   electron_maxstep = 100
   mixing_mode      = 'plain'
   mixing_beta      = 0.7
   diagonalization  = 'david'
/
&IONS
/
&CELL
/

ATOMIC_SPECIES
Rb 85.4678 Rb_ONCV_PBE-1.0.oncvpsp.upf
Sn 118.71 Sn_pbe_v1.uspp.F.UPF
O 15.999 O.pbe-n-kjpaw_psl.0.1.UPF

K_POINTS gamma

CELL_PARAMETERS angstrom
5.88714300000000 0.00000000000000 0.00000000000000
0.00000000000000 7.64196100000000 0.00000000000000
0.00000000000000 0.00000000000000 11.43767100000000

ATOMIC_POSITIONS angstrom
Rb 0.0063522273 4.9442570635 8.4816621184 
Rb 2.9372192727 2.6977039365 2.7628266184 
Rb 0.0169726333 4.6509203905 4.7773550493 
Rb 2.9265988667 2.9910406095 10.4961905493 
Rb 5.8701703667 0.8299398905 0.9414804507 
Rb 2.9605441333 6.8120211095 6.6603159507 
Rb 2.9499237273 6.5186844365 2.9560088816 
Rb 5.8807907727 1.1232765635 8.6748443816 
Sn 2.9177681522 6.7965690644 10.7902301954 
Sn 2.9693748478 2.9755885644 6.3662763046 
Sn 0.0258033478 0.8453919356 5.0713946954 
Sn 5.8613396522 4.6663724356 0.6474408046 
O 1.9879586740 5.3088626647 0.5449935855 
O 2.9223365752 4.4556759289 4.9738084864 
O 5.8659080752 7.0072655711 6.4638625136 
O 0.9556128260 2.3330983353 6.2638290855 
O 2.9648064248 0.6346954289 0.7450270136 
O 3.8991843260 1.4878821647 5.1738419145 
O 4.9315301740 6.1540788353 10.8926774145 
O 0.0212349248 3.1862850711 10.6926439864 

