&CONTROL
   calculation      = 'scf'
   verbosity        = 'high'
   nstep            = 1
   tstress          = .true.
   tprnfor          = .true.
   outdir           = 'calculations/'
   prefix           = 'myprefix'
   pseudo_dir       = '/home/pragov/projects/rrg-bengioy-ad/pragov/crystal_structure_design/SSSP'
/
&SYSTEM
   ecutwfc          = 30
   ecutrho          = 240
   occupations      = 'smearing'
   degauss          = 0.001
   smearing         = 'mp'
   nspin            = 1
   ntyp             = 5
   nat              = 20
   ibrav            = 0
/
&ELECTRONS
   electron_maxstep = 100
   mixing_mode      = 'plain'
   mixing_beta      = 0.7
   diagonalization  = 'david'
/
&IONS
/
&CELL
/

ATOMIC_SPECIES
Ba 137.327 Ba.pbe-spn-kjpaw_psl.1.0.0.UPF
Sr 87.62 Sr_pbe_v1.uspp.F.UPF
Lu 174.9668 Lu.GGA-PBE-paw-v1.0.UPF
Bi 208.9804 Bi_pbe_v1.uspp.F.UPF
O 15.999 O.pbe-n-kjpaw_psl.0.1.UPF

K_POINTS gamma

CELL_PARAMETERS angstrom
6.02612500000000 0.00000000000000 0.00000000000000
0.00000000000000 6.02596700000000 0.00000000000000
0.00000000000000 6.03392699832271 8.52034999849272

ATOMIC_POSITIONS angstrom
Ba 1.5979776969 3.0354636023 2.1320301394 
Ba 4.4281473031 6.0524271014 6.3922051387 
Sr 1.3609943051 9.0024609701 6.3896575540 
Sr 4.6651306949 5.9854974709 2.1294825548 
Lu 4.5145860401 3.0115086982 0.0016699886 
Lu 1.5115389599 6.0284721974 4.2618449878 
Bi 4.5141762636 3.0172563358 4.2575677721 
Bi 1.5119487364 6.0342198349 8.5177427714 
O 3.2293642307 4.7014264262 3.9250525931 
O 2.7967607693 7.7183899253 8.1852275924 
O 5.8902178029 7.4332820569 4.5201479184 
O 0.1359071971 4.4163185577 0.2599729192 
O 4.6145715061 9.3639658320 6.3650081815 
O 1.4115534939 6.3470023328 2.1048331822 
O 4.4678413885 2.5666455099 2.1601217334 
O 1.5582836115 5.5836090091 6.4202967326 
O 0.1200524623 4.3713437562 4.0043003684 
O 5.9060725378 7.3883072553 8.2644753677 
O 2.8256982215 7.7661698050 4.5860187442 
O 3.2004267785 4.7492063058 0.3258437450 

