&CONTROL
   calculation      = 'scf'
   verbosity        = 'high'
   nstep            = 1
   tstress          = .true.
   tprnfor          = .true.
   outdir           = 'calculations/'
   prefix           = 'myprefix'
   pseudo_dir       = '/home/pragov/projects/rrg-bengioy-ad/pragov/crystal_structure_design/SSSP'
/
&SYSTEM
   ecutwfc          = 30
   ecutrho          = 240
   occupations      = 'smearing'
   degauss          = 0.001
   smearing         = 'mp'
   nspin            = 1
   ntyp             = 3
   nat              = 5
   ibrav            = 0
/
&ELECTRONS
   electron_maxstep = 100
   mixing_mode      = 'plain'
   mixing_beta      = 0.7
   diagonalization  = 'david'
/
&IONS
/
&CELL
/

ATOMIC_SPECIES
K 39.0983 K.pbe-spn-kjpaw_psl.1.0.0.UPF
Fe 55.845 Fe.pbe-spn-kjpaw_psl.0.2.1.UPF
As 74.921595 As.pbe-n-rrkjus_psl.0.2.UPF

K_POINTS gamma

CELL_PARAMETERS angstrom
7.55368275000000 0.00000000000000 0.00000000000000
5.66843810333842 4.99268790895933 0.00000000000000
-6.61106042666227 -2.49634395447704 2.66838340266416

ATOMIC_POSITIONS angstrom
K 0.0000000000 0.0000000000 0.0000000000 
Fe 3.7768413750 0.0000000000 1.3341917013 
Fe 2.8342190517 2.4963439545 1.3341917013 
As 8.6365835644 3.2611838006 0.0000000000 
As 4.5855372889 1.7315041083 0.0000000000 

