&CONTROL
   calculation      = 'scf'
   verbosity        = 'high'
   nstep            = 1
   tstress          = .true.
   tprnfor          = .true.
   outdir           = 'calculations/'
   prefix           = 'myprefix'
   pseudo_dir       = '/home/pragov/projects/rrg-bengioy-ad/pragov/crystal_structure_design/SSSP'
/
&SYSTEM
   ecutwfc          = 30
   ecutrho          = 240
   occupations      = 'smearing'
   degauss          = 0.001
   smearing         = 'mp'
   nspin            = 1
   ntyp             = 4
   nat              = 16
   ibrav            = 0
/
&ELECTRONS
   electron_maxstep = 100
   mixing_mode      = 'plain'
   mixing_beta      = 0.7
   diagonalization  = 'david'
/
&IONS
/
&CELL
/

ATOMIC_SPECIES
Bi 208.9804 Bi_pbe_v1.uspp.F.UPF
P 30.973761998 P.pbe-n-rrkjus_psl.1.0.0.UPF
Pb 207.2 Pb.pbe-dn-kjpaw_psl.0.2.2.UPF
O 15.999 O.pbe-n-kjpaw_psl.0.1.UPF

K_POINTS gamma

CELL_PARAMETERS angstrom
5.91388400000000 0.00000000000000 0.00000000000000
-1.41770699992267 6.95849299961993 0.00000000000000
-2.32450099819171 -2.61225699876147 6.18635099674895

ATOMIC_POSITIONS angstrom
Bi 1.9718307239 0.4122469712 3.4497753289 
Bi 0.1998452780 3.9339890296 2.7365756679 
P -1.8666481117 2.3233854285 5.3095532836 
P 4.0383241136 2.0228505723 0.8767977131 
Pb -1.0751532620 -1.3900426546 5.0855702594 
Pb 3.2468292639 5.7362786555 1.1007807373 
O -0.9870635557 5.7112107116 2.9254387774 
O 4.0428973974 3.3158377308 1.7615077692 
O 1.3441959760 -0.2004425540 5.6012088014 
O -0.7477342949 3.3097244816 4.8374913981 
O 0.8274800259 4.5466785549 0.5851421954 
O 3.1587395576 -1.3649747107 3.2609122193 
O 2.6678487989 3.0237304100 5.2131328170 
O -1.8712213955 1.0303982700 4.4248432276 
O -0.4961727970 1.3225055908 0.9732181798 
O 2.9194102968 1.0365115193 1.3488595986 

