&CONTROL
   calculation      = 'scf'
   verbosity        = 'high'
   nstep            = 1
   tstress          = .true.
   tprnfor          = .true.
   outdir           = 'calculations/'
   prefix           = 'myprefix'
   pseudo_dir       = '/home/pragov/projects/rrg-bengioy-ad/pragov/crystal_structure_design/SSSP'
/
&SYSTEM
   ecutwfc          = 30
   ecutrho          = 240
   occupations      = 'smearing'
   degauss          = 0.001
   smearing         = 'mp'
   nspin            = 1
   ntyp             = 3
   nat              = 9
   ibrav            = 0
/
&ELECTRONS
   electron_maxstep = 100
   mixing_mode      = 'plain'
   mixing_beta      = 0.7
   diagonalization  = 'david'
/
&IONS
/
&CELL
/

ATOMIC_SPECIES
Cs 132.90545196 Cs_pbe_v1.uspp.F.UPF
W 183.84 W_pbe_v1.2.uspp.F.UPF
Br 79.904 br_pbe_v1.4.uspp.F.UPF

K_POINTS gamma

CELL_PARAMETERS angstrom
7.87632243000000 0.00000000000000 0.00000000000000
3.93816121500000 6.82109531277718 0.00000000000000
3.93816121500000 2.27369843759239 6.43099033437936

ATOMIC_POSITIONS angstrom
Cs 11.8144836450 6.8210953128 4.8232427508 
Cs 3.9381612150 2.2736984376 1.6077475836 
W 0.0000000000 0.0000000000 0.0000000000 
Br 5.7476439011 3.3184037535 4.9535539079 
Br 7.8763224300 7.0053831185 4.9535539079 
Br 7.8763224300 2.0894106318 1.4774364264 
Br 5.7476439011 5.7763899969 1.4774364264 
Br 10.0050009589 3.3184037535 4.9535539079 
Br 10.0050009589 5.7763899969 1.4774364264 

