&CONTROL
   calculation      = 'scf'
   verbosity        = 'high'
   nstep            = 1
   tstress          = .true.
   tprnfor          = .true.
   outdir           = 'calculations/'
   prefix           = 'myprefix'
   pseudo_dir       = '/home/pragov/projects/rrg-bengioy-ad/pragov/crystal_structure_design/SSSP'
/
&SYSTEM
   ecutwfc          = 30
   ecutrho          = 240
   occupations      = 'smearing'
   degauss          = 0.001
   smearing         = 'mp'
   nspin            = 1
   ntyp             = 2
   nat              = 6
   ibrav            = 0
/
&ELECTRONS
   electron_maxstep = 100
   mixing_mode      = 'plain'
   mixing_beta      = 0.7
   diagonalization  = 'david'
/
&IONS
/
&CELL
/

ATOMIC_SPECIES
Fe 55.845 Fe.pbe-spn-kjpaw_psl.0.2.1.UPF
Ge 72.63 ge_pbe_v1.4.uspp.F.UPF

K_POINTS gamma

CELL_PARAMETERS angstrom
4.97233301000000 0.00000000000000 0.00000000000000
-2.48616751961655 4.30616611694664 0.00000000000000
0.00000000000000 0.00000000000000 4.04132400000000

ATOMIC_POSITIONS angstrom
Fe 1.2430827452 2.1530830585 0.0000000000 
Fe 2.4861665050 0.0000000000 0.0000000000 
Fe -1.2430837598 2.1530830585 0.0000000000 
Ge 2.4861686530 1.4353872703 2.0206620000 
Ge 0.0000000000 0.0000000000 0.0000000000 
Ge -0.0000031626 2.8707788467 2.0206620000 

