&CONTROL
   calculation      = 'scf'
   verbosity        = 'high'
   nstep            = 1
   tstress          = .true.
   tprnfor          = .true.
   outdir           = 'calculations/'
   prefix           = 'myprefix'
   pseudo_dir       = '/home/pragov/projects/rrg-bengioy-ad/pragov/crystal_structure_design/SSSP'
/
&SYSTEM
   ecutwfc          = 30
   ecutrho          = 240
   occupations      = 'smearing'
   degauss          = 0.001
   smearing         = 'mp'
   nspin            = 1
   ntyp             = 3
   nat              = 9
   ibrav            = 0
/
&ELECTRONS
   electron_maxstep = 100
   mixing_mode      = 'plain'
   mixing_beta      = 0.7
   diagonalization  = 'david'
/
&IONS
/
&CELL
/

ATOMIC_SPECIES
Zr 91.224 Zr_pbe_v1.uspp.F.UPF
Sb 121.76 sb_pbe_v1.4.uspp.F.UPF
Pt 195.084 pt_pbe_v1.4.uspp.F.UPF

K_POINTS gamma

CELL_PARAMETERS angstrom
7.88548806000000 0.00000000000000 0.00000000000000
-3.94274409078645 6.82903294610380 0.00000000000000
0.00000000000000 0.00000000000000 3.71544100000000

ATOMIC_POSITIONS angstrom
Zr 4.6936554015 0.0000000000 0.0000000000 
Zr 1.5959163047 2.7642081527 0.0000000000 
Zr -2.3468277369 4.0648247934 0.0000000000 
Zr 1.9865121521 0.0000000000 1.8577205000 
Zr 2.9494879085 5.1086629663 1.8577205000 
Zr -0.9932560914 1.7203699798 1.8577205000 
Sb 3.9427479525 2.2763420390 1.8577205000 
Sb -0.0000039833 4.5526909071 1.8577205000 
Pt 0.0000000000 0.0000000000 0.0000000000 

