&CONTROL
   calculation      = 'scf'
   verbosity        = 'high'
   nstep            = 1
   tstress          = .true.
   tprnfor          = .true.
   outdir           = 'calculations/'
   prefix           = 'myprefix'
   pseudo_dir       = '/home/pragov/projects/rrg-bengioy-ad/pragov/crystal_structure_design/SSSP'
/
&SYSTEM
   ecutwfc          = 30
   ecutrho          = 240
   occupations      = 'smearing'
   degauss          = 0.001
   smearing         = 'mp'
   nspin            = 1
   ntyp             = 4
   nat              = 20
   ibrav            = 0
/
&ELECTRONS
   electron_maxstep = 100
   mixing_mode      = 'plain'
   mixing_beta      = 0.7
   diagonalization  = 'david'
/
&IONS
/
&CELL
/

ATOMIC_SPECIES
Mg 24.305 Mg.pbe-n-kjpaw_psl.0.3.0.UPF
Ge 72.63 ge_pbe_v1.4.uspp.F.UPF
B 10.81 b_pbe_v1.4.uspp.F.UPF
Rh 102.9055 Rh_ONCV_PBE-1.0.oncvpsp.upf

K_POINTS gamma

CELL_PARAMETERS angstrom
9.42012100000000 0.00000000000000 0.00000000000000
0.00000000000000 9.42012100000000 0.00000000000000
0.00000000000000 0.00000000000000 2.93730300000000

ATOMIC_POSITIONS angstrom
Mg 7.7747555655 3.0646950655 0.0000000000 
Mg 3.0646950655 1.6453654345 0.0000000000 
Mg 6.3554259345 7.7747555655 0.0000000000 
Mg 1.6453654345 6.3554259345 0.0000000000 
Ge 0.0000000000 0.0000000000 0.0000000000 
Ge 4.7100605000 4.7100605000 0.0000000000 
B 5.8899683357 1.1799078357 0.0000000000 
B 1.1799078357 3.5301526643 0.0000000000 
B 8.2402131643 5.8899683357 0.0000000000 
B 3.5301526643 8.2402131643 0.0000000000 
Rh 0.6788798601 2.0122885675 1.4686515000 
Rh 2.0122885675 8.7412411399 1.4686515000 
Rh 7.4078324325 0.6788798601 1.4686515000 
Rh 8.7412411399 7.4078324325 1.4686515000 
Rh 4.0311806399 6.7223490675 1.4686515000 
Rh 5.3889403601 2.6977719325 1.4686515000 
Rh 6.7223490675 5.3889403601 1.4686515000 
Rh 2.6977719325 4.0311806399 1.4686515000 
Rh 4.7100605000 0.0000000000 1.4686515000 
Rh 0.0000000000 4.7100605000 1.4686515000 

