&CONTROL
   calculation      = 'scf'
   verbosity        = 'high'
   nstep            = 1
   tstress          = .true.
   tprnfor          = .true.
   outdir           = 'calculations/'
   prefix           = 'myprefix'
   pseudo_dir       = '/home/pragov/projects/rrg-bengioy-ad/pragov/crystal_structure_design/SSSP'
/
&SYSTEM
   ecutwfc          = 30
   ecutrho          = 240
   occupations      = 'smearing'
   degauss          = 0.001
   smearing         = 'mp'
   nspin            = 1
   ntyp             = 3
   nat              = 6
   ibrav            = 0
/
&ELECTRONS
   electron_maxstep = 100
   mixing_mode      = 'plain'
   mixing_beta      = 0.7
   diagonalization  = 'david'
/
&IONS
/
&CELL
/

ATOMIC_SPECIES
Nd 144.242 Nd.GGA-PBE-paw-v1.0.UPF
Sc 44.955908 Sc_ONCV_PBE-1.0.oncvpsp.upf
Ge 72.63 ge_pbe_v1.4.uspp.F.UPF

K_POINTS gamma

CELL_PARAMETERS angstrom
8.57562587000000 0.00000000000000 0.00000000000000
6.39356205044577 5.71521857581256 0.00000000000000
-7.48459396059040 -2.85760928804660 3.05880392705657

ATOMIC_POSITIONS angstrom
Nd 10.1276286254 3.8667168557 0.0000000000 
Nd 4.8415592950 1.8485017201 0.0000000000 
Sc 0.5455159547 -1.4288046440 1.5294019635 
Sc -0.5455159551 1.4288046439 1.5294019635 
Ge 1.8404616548 0.7026861239 0.0000000000 
Ge 13.1287262656 5.0125324519 0.0000000000 

