&CONTROL
   calculation      = 'scf'
   verbosity        = 'high'
   nstep            = 1
   tstress          = .true.
   tprnfor          = .true.
   outdir           = 'calculations/'
   prefix           = 'myprefix'
   pseudo_dir       = '/home/pragov/projects/rrg-bengioy-ad/pragov/crystal_structure_design/SSSP'
/
&SYSTEM
   ecutwfc          = 30
   ecutrho          = 240
   occupations      = 'smearing'
   degauss          = 0.001
   smearing         = 'mp'
   nspin            = 1
   ntyp             = 2
   nat              = 2
   ibrav            = 0
/
&ELECTRONS
   electron_maxstep = 100
   mixing_mode      = 'plain'
   mixing_beta      = 0.7
   diagonalization  = 'david'
/
&IONS
/
&CELL
/

ATOMIC_SPECIES
Tm 168.93422 Tm.GGA-PBE-paw-v1.0.UPF
S 32.06 s_pbe_v1.4.uspp.F.UPF

K_POINTS gamma

CELL_PARAMETERS angstrom
3.84076220000000 0.00000000000000 0.00000000000000
1.92038110000000 3.32619763509501 0.00000000000000
1.92038110000000 1.10873254503167 3.13596920445645

ATOMIC_POSITIONS angstrom
Tm 3.8407622000 2.2174650901 1.5679846022 
S 0.0000000000 0.0000000000 0.0000000000 

