&CONTROL
   calculation      = 'scf'
   verbosity        = 'high'
   nstep            = 1
   tstress          = .true.
   tprnfor          = .true.
   outdir           = 'calculations/'
   prefix           = 'myprefix'
   pseudo_dir       = '/home/pragov/projects/rrg-bengioy-ad/pragov/crystal_structure_design/SSSP'
/
&SYSTEM
   ecutwfc          = 30
   ecutrho          = 240
   occupations      = 'smearing'
   degauss          = 0.001
   smearing         = 'mp'
   nspin            = 1
   ntyp             = 3
   nat              = 4
   ibrav            = 0
/
&ELECTRONS
   electron_maxstep = 100
   mixing_mode      = 'plain'
   mixing_beta      = 0.7
   diagonalization  = 'david'
/
&IONS
/
&CELL
/

ATOMIC_SPECIES
Ti 47.867 ti_pbe_v1.4.uspp.F.UPF
Al 26.9815385 Al.pbe-n-kjpaw_psl.1.0.0.UPF
Rh 102.9055 Rh_ONCV_PBE-1.0.oncvpsp.upf

K_POINTS gamma

CELL_PARAMETERS angstrom
4.33337522000000 0.00000000000000 0.00000000000000
2.16668761000000 3.75281302464998 0.00000000000000
2.16668761000000 1.25093767488333 3.53818605100693

ATOMIC_POSITIONS angstrom
Ti 0.0000000000 0.0000000000 0.0000000000 
Al 4.3333752200 2.5018753498 1.7690930255 
Rh 2.1666876100 1.2509376749 0.8845465128 
Rh 6.5000628300 3.7528130246 2.6536395383 

