&CONTROL
   calculation      = 'scf'
   verbosity        = 'high'
   nstep            = 1
   tstress          = .true.
   tprnfor          = .true.
   outdir           = 'calculations/'
   prefix           = 'myprefix'
   pseudo_dir       = '/home/pragov/projects/rrg-bengioy-ad/pragov/crystal_structure_design/SSSP'
/
&SYSTEM
   ecutwfc          = 30
   ecutrho          = 240
   occupations      = 'smearing'
   degauss          = 0.001
   smearing         = 'mp'
   nspin            = 1
   ntyp             = 3
   nat              = 4
   ibrav            = 0
/
&ELECTRONS
   electron_maxstep = 100
   mixing_mode      = 'plain'
   mixing_beta      = 0.7
   diagonalization  = 'david'
/
&IONS
/
&CELL
/

ATOMIC_SPECIES
Ca 40.078 Ca_pbe_v1.uspp.F.UPF
Tm 168.93422 Tm.GGA-PBE-paw-v1.0.UPF
Cd 112.414 Cd.pbe-dn-rrkjus_psl.0.3.1.UPF

K_POINTS gamma

CELL_PARAMETERS angstrom
5.31775271000000 0.00000000000000 0.00000000000000
2.65887635500000 4.60530893790354 0.00000000000000
2.65887635500000 1.53510297930118 4.34192690593415

ATOMIC_POSITIONS angstrom
Ca 5.3177527100 3.0702059586 2.1709634530 
Tm 0.0000000000 0.0000000000 0.0000000000 
Cd 7.9766290650 4.6053089379 3.2564451795 
Cd 2.6588763550 1.5351029793 1.0854817265 

