&CONTROL
   calculation      = 'scf'
   verbosity        = 'high'
   nstep            = 1
   tstress          = .true.
   tprnfor          = .true.
   outdir           = 'calculations/'
   prefix           = 'myprefix'
   pseudo_dir       = '/home/pragov/projects/rrg-bengioy-ad/pragov/crystal_structure_design/SSSP'
/
&SYSTEM
   ecutwfc          = 30
   ecutrho          = 240
   occupations      = 'smearing'
   degauss          = 0.001
   smearing         = 'mp'
   nspin            = 1
   ntyp             = 3
   nat              = 16
   ibrav            = 0
/
&ELECTRONS
   electron_maxstep = 100
   mixing_mode      = 'plain'
   mixing_beta      = 0.7
   diagonalization  = 'david'
/
&IONS
/
&CELL
/

ATOMIC_SPECIES
Ti 47.867 ti_pbe_v1.4.uspp.F.UPF
Cu 63.546 Cu_pbe_v1.2.uspp.F.UPF
S 32.06 s_pbe_v1.4.uspp.F.UPF

K_POINTS gamma

CELL_PARAMETERS angstrom
5.89328200000000 0.00000000000000 0.00000000000000
0.00712500050491 6.81035300290845 0.00000000000000
-2.93729399914304 -2.56177099851819 7.36575299632323

ATOMIC_POSITIONS angstrom
Ti 1.5087255826 3.8360215016 0.7424679020 
Ti 1.4543874187 0.4125605028 6.6232850943 
Ti 1.4779940004 -1.2808854993 3.6828764982 
Ti -1.4924671877 -0.4596857486 5.1925906953 
Ti 4.4555801890 4.7082677530 2.1731623010 
Cu -1.4650844993 2.1242910022 3.6828764982 
S 0.4945384638 0.8171901316 4.4269059398 
S 0.5153389534 5.9204414944 1.4928834515 
S 3.4422869961 1.6722374535 5.9198188544 
S 3.4414327608 -0.0254776255 2.9546171337 
S 3.4468941514 5.0777119703 0.0122934418 
S -0.4783197594 4.2740596299 4.4111358627 
S -0.4791739947 2.5763445509 1.4459341419 
S 2.4477740480 -1.6718594900 5.8728695448 
S 2.4685745376 3.4313918727 2.9388470565 
S -0.4837811500 -0.8291299659 7.3534595546 

