&CONTROL
   calculation      = 'scf'
   verbosity        = 'high'
   nstep            = 1
   tstress          = .true.
   tprnfor          = .true.
   outdir           = 'calculations/'
   prefix           = 'myprefix'
   pseudo_dir       = '/home/pragov/projects/rrg-bengioy-ad/pragov/crystal_structure_design/SSSP'
/
&SYSTEM
   ecutwfc          = 30
   ecutrho          = 240
   occupations      = 'smearing'
   degauss          = 0.001
   smearing         = 'mp'
   nspin            = 1
   ntyp             = 3
   nat              = 7
   ibrav            = 0
/
&ELECTRONS
   electron_maxstep = 100
   mixing_mode      = 'plain'
   mixing_beta      = 0.7
   diagonalization  = 'david'
/
&IONS
/
&CELL
/

ATOMIC_SPECIES
Eu 151.964 Eu.GGA-PBE-paw-v1.0.UPF
Bi 208.9804 Bi_pbe_v1.uspp.F.UPF
O 15.999 O.pbe-n-kjpaw_psl.0.1.UPF

K_POINTS gamma

CELL_PARAMETERS angstrom
9.33571838000000 0.00000000000000 0.00000000000000
6.72588297903093 6.47442165934934 0.00000000000000
-8.03080067951700 -3.23721082967529 3.49032149819641

ATOMIC_POSITIONS angstrom
Eu -0.6524588502 1.6186054148 1.7451607491 
Eu 0.6524588502 -1.6186054148 1.7451607491 
Eu 13.3698536489 5.3893798079 0.0000000000 
Eu 2.6917477102 1.0850418515 0.0000000000 
Bi 10.2568904431 4.1345462484 0.0000000000 
Bi 5.8047109160 2.3398754110 0.0000000000 
O 0.0000000000 0.0000000000 0.0000000000 

