&CONTROL
   calculation      = 'scf'
   verbosity        = 'high'
   nstep            = 1
   tstress          = .true.
   tprnfor          = .true.
   outdir           = 'calculations/'
   prefix           = 'myprefix'
   pseudo_dir       = '/home/pragov/projects/rrg-bengioy-ad/pragov/crystal_structure_design/SSSP'
/
&SYSTEM
   ecutwfc          = 30
   ecutrho          = 240
   occupations      = 'smearing'
   degauss          = 0.001
   smearing         = 'mp'
   nspin            = 1
   ntyp             = 4
   nat              = 10
   ibrav            = 0
/
&ELECTRONS
   electron_maxstep = 100
   mixing_mode      = 'plain'
   mixing_beta      = 0.7
   diagonalization  = 'david'
/
&IONS
/
&CELL
/

ATOMIC_SPECIES
Ba 137.327 Ba.pbe-spn-kjpaw_psl.1.0.0.UPF
Yb 173.054 Yb.GGA-PBE-paw-v1.0.UPF
Nb 92.90637 Nb.pbe-spn-kjpaw_psl.0.3.0.UPF
O 15.999 O.pbe-n-kjpaw_psl.0.1.UPF

K_POINTS gamma

CELL_PARAMETERS angstrom
6.06443484000000 0.00000000000000 0.00000000000000
3.03221742000000 5.25195463103542 0.00000000000000
3.03221742000000 1.75065154367847 4.95159031211898

ATOMIC_POSITIONS angstrom
Ba 3.0322174200 1.7506515437 1.2378975780 
Ba 9.0966522600 5.2519546310 3.7136927341 
Yb 6.0644348400 3.5013030874 2.4757951561 
Nb 0.0000000000 0.0000000000 0.0000000000 
O 7.6715464592 4.4291694133 1.1635940138 
O 7.6715464592 2.5734367614 3.7879962983 
O 4.4573232208 4.4291694133 1.1635940138 
O 6.0644348400 1.6455704354 1.1635940138 
O 4.4573232208 2.5734367614 3.7879962983 
O 6.0644348400 5.3570357393 3.7879962983 

