&CONTROL
   calculation      = 'scf'
   verbosity        = 'high'
   nstep            = 1
   tstress          = .true.
   tprnfor          = .true.
   outdir           = 'calculations/'
   prefix           = 'myprefix'
   pseudo_dir       = '/home/pragov/projects/rrg-bengioy-ad/pragov/crystal_structure_design/SSSP'
/
&SYSTEM
   ecutwfc          = 30
   ecutrho          = 240
   occupations      = 'smearing'
   degauss          = 0.001
   smearing         = 'mp'
   nspin            = 1
   ntyp             = 3
   nat              = 12
   ibrav            = 0
/
&ELECTRONS
   electron_maxstep = 100
   mixing_mode      = 'plain'
   mixing_beta      = 0.7
   diagonalization  = 'david'
/
&IONS
/
&CELL
/

ATOMIC_SPECIES
Sm 150.36 Sm.GGA-PBE-paw-v1.0.UPF
V 50.9415 v_pbe_v1.4.uspp.F.UPF
O 15.999 O.pbe-n-kjpaw_psl.0.1.UPF

K_POINTS gamma

CELL_PARAMETERS angstrom
6.83494257000000 0.00000000000000 0.00000000000000
2.93698126620182 6.17175671727084 0.00000000000000
-4.88596191802424 -3.08587835858700 3.64981791694044

ATOMIC_POSITIONS angstrom
Sm 1.4684906331 3.0858783587 1.8249089585 
Sm 4.8859619181 3.0858783586 0.0000000000 
V 3.4174712850 0.0000000000 1.8249089585 
V 0.0000000000 0.0000000000 0.0000000000 
O -2.4235472607 0.1595152242 3.2631489072 
O 3.9885892666 0.8289348165 0.3866690098 
O 6.8494502062 1.7102431604 0.3958811502 
O -0.3984462822 2.3640852388 3.2539367668 
O 3.8920378939 2.9263631346 2.2115779682 
O -0.5711179815 -0.8289348164 1.4382399487 
O 6.3399449150 4.4615135569 1.4290278083 
O 1.8669369154 0.7217931199 2.2207901086 

