&CONTROL
   calculation      = 'scf'
   verbosity        = 'high'
   nstep            = 1
   tstress          = .true.
   tprnfor          = .true.
   outdir           = 'calculations/'
   prefix           = 'myprefix'
   pseudo_dir       = '/home/pragov/projects/rrg-bengioy-ad/pragov/crystal_structure_design/SSSP'
/
&SYSTEM
   ecutwfc          = 30
   ecutrho          = 240
   occupations      = 'smearing'
   degauss          = 0.001
   smearing         = 'mp'
   nspin            = 1
   ntyp             = 1
   nat              = 6
   ibrav            = 0
/
&ELECTRONS
   electron_maxstep = 100
   mixing_mode      = 'plain'
   mixing_beta      = 0.7
   diagonalization  = 'david'
/
&IONS
/
&CELL
/

ATOMIC_SPECIES
Tb 158.92535 Tb.GGA-PBE-paw-v1.0.UPF

K_POINTS gamma

CELL_PARAMETERS angstrom
3.57609961000000 0.00000000000000 0.00000000000000
-1.78804941852299 3.09699333185620 0.00000000000000
0.00000000000000 0.00000000000000 17.36712200000000

ATOMIC_POSITIONS angstrom
Tb 1.7880517219 1.0323300783 15.9211006880 
Tb 0.0000000000 0.0000000000 4.3417805000 
Tb 1.7880517219 1.0323300783 10.1295823120 
Tb -0.0000015304 2.0646632536 7.2375396880 
Tb 0.0000000000 0.0000000000 13.0253415000 
Tb -0.0000015304 2.0646632536 1.4460213120 

