&CONTROL
   calculation      = 'scf'
   verbosity        = 'high'
   nstep            = 1
   tstress          = .true.
   tprnfor          = .true.
   outdir           = 'calculations/'
   prefix           = 'myprefix'
   pseudo_dir       = '/home/pragov/projects/rrg-bengioy-ad/pragov/crystal_structure_design/SSSP'
/
&SYSTEM
   ecutwfc          = 30
   ecutrho          = 240
   occupations      = 'smearing'
   degauss          = 0.001
   smearing         = 'mp'
   nspin            = 1
   ntyp             = 2
   nat              = 4
   ibrav            = 0
/
&ELECTRONS
   electron_maxstep = 100
   mixing_mode      = 'plain'
   mixing_beta      = 0.7
   diagonalization  = 'david'
/
&IONS
/
&CELL
/

ATOMIC_SPECIES
Sr 87.62 Sr_pbe_v1.uspp.F.UPF
Mg 24.305 Mg.pbe-n-kjpaw_psl.0.3.0.UPF

K_POINTS gamma

CELL_PARAMETERS angstrom
4.00947500000000 0.00000000000000 0.00000000000000
0.00000000000000 5.98124900000000 0.00000000000000
0.00000000000000 0.00000000000000 6.11675800000000

ATOMIC_POSITIONS angstrom
Sr 2.0047375000 1.4953122500 1.7581336352 
Sr 2.0047375000 4.4859367500 4.3586243648 
Mg 0.0000000000 4.4859367500 1.1589054377 
Mg 0.0000000000 1.4953122500 4.9578525623 

