&CONTROL
   calculation      = 'scf'
   verbosity        = 'high'
   nstep            = 1
   tstress          = .true.
   tprnfor          = .true.
   outdir           = 'calculations/'
   prefix           = 'myprefix'
   pseudo_dir       = '/home/pragov/projects/rrg-bengioy-ad/pragov/crystal_structure_design/SSSP'
/
&SYSTEM
   ecutwfc          = 30
   ecutrho          = 240
   occupations      = 'smearing'
   degauss          = 0.001
   smearing         = 'mp'
   nspin            = 1
   ntyp             = 4
   nat              = 11
   ibrav            = 0
/
&ELECTRONS
   electron_maxstep = 100
   mixing_mode      = 'plain'
   mixing_beta      = 0.7
   diagonalization  = 'david'
/
&IONS
/
&CELL
/

ATOMIC_SPECIES
Pr 140.90766 Pr.GGA-PBE-paw-v1.0.UPF
Ti 47.867 ti_pbe_v1.4.uspp.F.UPF
S 32.06 s_pbe_v1.4.uspp.F.UPF
O 15.999 O.pbe-n-kjpaw_psl.0.1.UPF

K_POINTS gamma

CELL_PARAMETERS angstrom
12.02598015000000 0.00000000000000 0.00000000000000
10.76843341356480 5.35397426084727 0.00000000000000
-11.39720678141276 -2.67698713033682 2.74983927783499

ATOMIC_POSITIONS angstrom
Pr 15.1743322869 3.5641620813 0.0000000000 
Pr 7.6200812766 1.7898121795 0.0000000000 
Ti 1.7634670109 0.4142048647 0.0000000000 
Ti 21.0309465526 4.9397693961 0.0000000000 
S 18.1604004637 4.2655327095 0.0000000000 
S 4.6340130998 1.0884415513 0.0000000000 
O 1.8748343835 1.8526999612 1.3749196389 
O 9.5223723986 0.8242871693 1.3749196389 
O 0.0000000000 0.0000000000 0.0000000000 
O 8.8935990304 3.5012742997 1.3749196389 
O 2.5036077518 -0.8242871692 1.3749196389 

