&CONTROL
   calculation      = 'scf'
   verbosity        = 'high'
   nstep            = 1
   tstress          = .true.
   tprnfor          = .true.
   outdir           = 'calculations/'
   prefix           = 'myprefix'
   pseudo_dir       = '/home/pragov/projects/rrg-bengioy-ad/pragov/crystal_structure_design/SSSP'
/
&SYSTEM
   ecutwfc          = 30
   ecutrho          = 240
   occupations      = 'smearing'
   degauss          = 0.001
   smearing         = 'mp'
   nspin            = 1
   ntyp             = 4
   nat              = 20
   ibrav            = 0
/
&ELECTRONS
   electron_maxstep = 100
   mixing_mode      = 'plain'
   mixing_beta      = 0.7
   diagonalization  = 'david'
/
&IONS
/
&CELL
/

ATOMIC_SPECIES
Zn 65.38 Zn_pbe_v1.uspp.F.UPF
Si 28.085 Si.pbe-n-rrkjus_psl.1.0.0.UPF
H 1.008 H.pbe-rrkjus_psl.1.0.0.UPF
O 15.999 O.pbe-n-kjpaw_psl.0.1.UPF

K_POINTS gamma

CELL_PARAMETERS angstrom
7.37699687000000 0.00000000000000 0.00000000000000
0.64800143238289 7.34848126918886 0.00000000000000
-2.46144690835229 -5.36808609203933 4.42097428694249

ATOMIC_POSITIONS angstrom
Zn 6.3249878725 3.7712613933 0.8842832769 
Zn -0.7489599736 -1.8044913350 3.5062747070 
Zn 1.8632979968 0.5875568938 3.5062747070 
Zn 3.7127299021 1.3792131645 0.8842832769 
Si 3.6444023338 -1.6277790482 2.1736604277 
Si 1.9493610618 3.5751808417 2.1736604277 
H 6.1893668874 1.2969657600 0.8617363080 
H 0.0310700268 -0.0339384567 1.9578240420 
H 5.3915897537 2.1681879770 3.3758471236 
H -1.1078339816 1.2098235670 4.1651236630 
O 5.1317280642 -2.3111627623 2.3144507748 
O 0.9267404499 3.7510857381 0.8999733146 
O 3.5590052236 -0.5936597214 0.8999733146 
O 2.4994632905 2.0335826972 2.3144507748 
O 3.2399280009 -0.8560723658 3.5604139581 
O 0.5681659641 -3.3025948863 3.5604139581 
O 5.5669556834 1.9766855378 1.1922218199 
O 0.1199487334 -0.1309914726 2.9280333751 
O 3.2676137278 4.4877018164 1.8159461352 
O 5.6124854068 1.9269561937 4.3016787168 

