&CONTROL
   calculation      = 'scf'
   verbosity        = 'high'
   nstep            = 1
   tstress          = .true.
   tprnfor          = .true.
   outdir           = 'calculations/'
   prefix           = 'myprefix'
   pseudo_dir       = '/home/pragov/projects/rrg-bengioy-ad/pragov/crystal_structure_design/SSSP'
/
&SYSTEM
   ecutwfc          = 30
   ecutrho          = 240
   occupations      = 'smearing'
   degauss          = 0.001
   smearing         = 'mp'
   nspin            = 1
   ntyp             = 3
   nat              = 6
   ibrav            = 0
/
&ELECTRONS
   electron_maxstep = 100
   mixing_mode      = 'plain'
   mixing_beta      = 0.7
   diagonalization  = 'david'
/
&IONS
/
&CELL
/

ATOMIC_SPECIES
Zr 91.224 Zr_pbe_v1.uspp.F.UPF
Co 58.933194 Co_pbe_v1.2.uspp.F.UPF
Ni 58.6934 ni_pbe_v1.4.uspp.F.UPF

K_POINTS gamma

CELL_PARAMETERS angstrom
5.30408692000000 0.00000000000000 0.00000000000000
-2.57478577781671 4.63722074666151 0.00000000000000
-1.36465057062152 -2.31861037253199 4.57111723929768

ATOMIC_POSITIONS angstrom
Zr 2.6520448250 0.0000023193 3.8029821273 
Zr 2.6520420954 -0.0000023185 0.7681351120 
Zr -2.5951281791 3.0882962733 2.2855586196 
Zr 0.0203424017 1.5489244742 2.2855586196 
Co 0.0000000000 0.0000000000 0.0000000000 
Ni 1.3646505711 2.3186103733 0.0000000000 

