&CONTROL
   calculation      = 'scf'
   verbosity        = 'high'
   nstep            = 1
   tstress          = .true.
   tprnfor          = .true.
   outdir           = 'calculations/'
   prefix           = 'myprefix'
   pseudo_dir       = '/home/pragov/projects/rrg-bengioy-ad/pragov/crystal_structure_design/SSSP'
/
&SYSTEM
   ecutwfc          = 30
   ecutrho          = 240
   occupations      = 'smearing'
   degauss          = 0.001
   smearing         = 'mp'
   nspin            = 1
   ntyp             = 3
   nat              = 16
   ibrav            = 0
/
&ELECTRONS
   electron_maxstep = 100
   mixing_mode      = 'plain'
   mixing_beta      = 0.7
   diagonalization  = 'david'
/
&IONS
/
&CELL
/

ATOMIC_SPECIES
K 39.0983 K.pbe-spn-kjpaw_psl.1.0.0.UPF
Bi 208.9804 Bi_pbe_v1.uspp.F.UPF
O 15.999 O.pbe-n-kjpaw_psl.0.1.UPF

K_POINTS gamma

CELL_PARAMETERS angstrom
6.55661300000000 0.00000000000000 0.00000000000000
-1.83500900095747 6.46778300142816 0.00000000000000
-0.97253199931492 -1.88640399991818 7.53989999691434

ATOMIC_POSITIONS angstrom
K 2.0053484187 3.1873090843 7.3704332046 
K 4.2519538903 -0.0538044469 6.2655287191 
K 2.3764279808 4.1289282524 3.5126584510 
K 1.3726440190 0.4524507491 4.0272415460 
K 1.7437235810 1.3940699172 0.1694667923 
K -0.5028818906 4.6351834484 1.2743712778 
Bi 4.6917618931 1.3566183354 2.3704013009 
Bi -0.9426898934 3.2247606661 5.1694986960 
O 4.0301481038 4.3692686186 5.8054666410 
O -0.2810761041 0.2121103829 1.7344333559 
O -0.2513415960 1.7818516151 6.4688421226 
O 4.0004135957 2.7995273864 1.0710578744 
O 0.4933125840 4.7032249886 5.4811378427 
O 3.2557594157 -0.1218459871 2.0587621543 
O -0.2290039112 2.7720159676 3.2073151208 
O 3.9780759110 1.8093630339 4.3325848761 

