&CONTROL
   calculation      = 'scf'
   verbosity        = 'high'
   nstep            = 1
   tstress          = .true.
   tprnfor          = .true.
   outdir           = 'calculations/'
   prefix           = 'myprefix'
   pseudo_dir       = '/home/pragov/projects/rrg-bengioy-ad/pragov/crystal_structure_design/SSSP'
/
&SYSTEM
   ecutwfc          = 30
   ecutrho          = 240
   occupations      = 'smearing'
   degauss          = 0.001
   smearing         = 'mp'
   nspin            = 1
   ntyp             = 5
   nat              = 14
   ibrav            = 0
/
&ELECTRONS
   electron_maxstep = 100
   mixing_mode      = 'plain'
   mixing_beta      = 0.7
   diagonalization  = 'david'
/
&IONS
/
&CELL
/

ATOMIC_SPECIES
Sr 87.62 Sr_pbe_v1.uspp.F.UPF
Eu 151.964 Eu.GGA-PBE-paw-v1.0.UPF
Ta 180.94788 Ta_pbe_v1.uspp.F.UPF
Cu 63.546 Cu_pbe_v1.2.uspp.F.UPF
O 15.999 O.pbe-n-kjpaw_psl.0.1.UPF

K_POINTS gamma

CELL_PARAMETERS angstrom
3.94372200000000 0.00000000000000 0.00000000000000
0.00000000000000 3.94372200000000 0.00000000000000
0.00000000000000 0.00000000000000 11.78166100000000

ATOMIC_POSITIONS angstrom
Sr 1.9718610000 1.9718610000 2.3590655454 
Sr 1.9718610000 1.9718610000 9.4225954546 
Eu 1.9718610000 1.9718610000 5.8908305000 
Ta 0.0000000000 0.0000000000 0.0000000000 
Cu 0.0000000000 0.0000000000 4.1908664160 
Cu 0.0000000000 0.0000000000 7.5907945840 
O 0.0000000000 0.0000000000 1.9836664809 
O 0.0000000000 0.0000000000 9.7979945191 
O 0.0000000000 1.9718610000 0.0000000000 
O 1.9718610000 0.0000000000 0.0000000000 
O 0.0000000000 1.9718610000 4.3287118497 
O 0.0000000000 1.9718610000 7.4529491503 
O 1.9718610000 0.0000000000 4.3287118497 
O 1.9718610000 0.0000000000 7.4529491503 

