&CONTROL
   tstress          = .true.
   tprnfor          = .true.
/
&SYSTEM
   ntyp             = 2
   nat              = 2
   ibrav            = 0
/
&ELECTRONS
/
&IONS
/
&CELL
/

ATOMIC_SPECIES
Na 22.98976928 Na_pbe_v1.uspp.F.UPF
Cl 35.45 Cl.pbe-n-rrkjus_psl.1.0.0.UPF

K_POINTS automatic
3 3 3  0 0 0

CELL_PARAMETERS angstrom
0.00000000000000 3.00000000000000 3.00000000000000
3.00000000000000 0.00000000000000 3.00000000000000
3.00000000000000 3.00000000000000 0.00000000000000

ATOMIC_POSITIONS angstrom
Na 0.0000000000 0.0000000000 0.0000000000 
Cl 3.0000000000 0.0000000000 0.0000000000 

