&CONTROL
   calculation      = 'scf'
   verbosity        = 'high'
   nstep            = 1
   tstress          = .true.
   tprnfor          = .true.
   outdir           = 'new_calculations/'
   prefix           = 'myprefix'
   pseudo_dir       = '/home/pragov/projects/rrg-bengioy-ad/pragov/crystal_structure_design/SSSP'
/
&SYSTEM
   ecutwfc          = 30
   ecutrho          = 240
   occupations      = 'smearing'
   degauss          = 0.001
   smearing         = 'mp'
   nspin            = 1
   ntyp             = 3
   nat              = 11
   ibrav            = 0
/
&ELECTRONS
   electron_maxstep = 100
   mixing_mode      = 'plain'
   mixing_beta      = 0.7
   diagonalization  = 'david'
/
&IONS
/
&CELL
/

ATOMIC_SPECIES
K 39.0983 K.pbe-spn-kjpaw_psl.1.0.0.UPF
Sb 121.76 sb_pbe_v1.4.uspp.F.UPF
Te 127.6 Te_pbe_v1.uspp.F.UPF

K_POINTS gamma

CELL_PARAMETERS angstrom
10.35621321000000 0.00000000000000 0.00000000000000
3.50575168764947 9.74478615237509 0.00000000000000
-6.93098244867576 -4.87239307608282 5.95587273699391

ATOMIC_POSITIONS angstrom
K 10.2450555768 3.5837181934 0.2338930783 
K 5.1847950009 3.9307495179 2.9601700001 
K -0.0907227063 3.5546494964 5.7219796587 
K -1.4771629735 -1.3243310552 2.9957027369 
K 3.6169093208 6.1610679589 0.2338930783 
K 8.6771698969 5.8140366345 2.9601700001 
K 0.0907227066 -3.5546494962 5.7219796587 
K 1.4771629736 1.3243310553 2.9957027369 
Sb 6.9309824488 4.8723930762 0.0000000000 
Sb 1.7528758439 4.8723930762 2.9779363685 
Te 0.0000000000 0.0000000000 0.0000000000 

