&CONTROL
   calculation      = 'scf'
   verbosity        = 'high'
   nstep            = 1
   tstress          = .true.
   tprnfor          = .true.
   outdir           = 'new_calculations/'
   prefix           = 'myprefix'
   pseudo_dir       = '/home/pragov/projects/rrg-bengioy-ad/pragov/crystal_structure_design/SSSP'
/
&SYSTEM
   ecutwfc          = 30
   ecutrho          = 240
   occupations      = 'smearing'
   degauss          = 0.001
   smearing         = 'mp'
   nspin            = 1
   ntyp             = 3
   nat              = 9
   ibrav            = 0
/
&ELECTRONS
   electron_maxstep = 100
   mixing_mode      = 'plain'
   mixing_beta      = 0.7
   diagonalization  = 'david'
/
&IONS
/
&CELL
/

ATOMIC_SPECIES
Rb 85.4678 Rb_ONCV_PBE-1.0.oncvpsp.upf
Pd 106.42 Pd_ONCV_PBE-1.0.oncvpsp.upf
Cl 35.45 cl_pbe_v1.4.uspp.F.UPF

K_POINTS gamma

CELL_PARAMETERS angstrom
7.19933133000000 0.00000000000000 0.00000000000000
3.59966566500000 6.23480382204121 0.00000000000000
3.59966566500000 2.07826794068040 5.87822941591086

ATOMIC_POSITIONS angstrom
Rb 3.5996656650 2.0782679407 1.4695573540 
Rb 10.7989969950 6.2348038220 4.4086720619 
Pd 0.0000000000 0.0000000000 0.0000000000 
Cl 9.1349867474 5.2740870576 1.3586586778 
Cl 9.1349867474 3.0389847051 4.5195707381 
Cl 5.2636759126 5.2740870576 1.3586586778 
Cl 5.2636759126 3.0389847051 4.5195707381 
Cl 7.1993313300 6.3916382339 4.5195707381 
Cl 7.1993313300 1.9214335288 1.3586586778 

