&CONTROL
   calculation      = 'scf'
   verbosity        = 'high'
   nstep            = 1
   tstress          = .true.
   tprnfor          = .true.
   outdir           = 'new_calculations/'
   prefix           = 'myprefix'
   pseudo_dir       = '/home/pragov/projects/rrg-bengioy-ad/pragov/crystal_structure_design/SSSP'
/
&SYSTEM
   ecutwfc          = 30
   ecutrho          = 240
   occupations      = 'smearing'
   degauss          = 0.001
   smearing         = 'mp'
   nspin            = 1
   ntyp             = 3
   nat              = 13
   ibrav            = 0
/
&ELECTRONS
   electron_maxstep = 100
   mixing_mode      = 'plain'
   mixing_beta      = 0.7
   diagonalization  = 'david'
/
&IONS
/
&CELL
/

ATOMIC_SPECIES
Ca 40.078 Ca_pbe_v1.uspp.F.UPF
V 50.9415 v_pbe_v1.4.uspp.F.UPF
O 15.999 O.pbe-n-kjpaw_psl.0.1.UPF

K_POINTS gamma

CELL_PARAMETERS angstrom
5.63223898000000 0.00000000000000 0.00000000000000
2.86319607003062 4.85017774853589 0.00000000000000
2.82219984747595 1.61123836761013 6.35666799798345

ATOMIC_POSITIONS angstrom
Ca 8.5070668577 4.8568185309 3.7557737199 
Ca 2.8105680398 1.6045975853 2.6008942781 
Ca 0.0000000000 0.0000000000 0.0000000000 
V 5.6512368654 3.2263801836 1.3616173552 
V 5.6663980321 3.2350359326 4.9950506428 
O 5.6614253157 1.5815958064 1.9405191097 
O 8.4278524761 4.8115937920 6.0050616210 
O 4.2207229545 2.4096772486 4.4583762337 
O 4.2400174401 4.0712938984 1.9405191097 
O 5.6562095818 4.8798203098 4.4161488882 
O 7.0776174574 2.3901222177 4.4161488882 
O 2.8897824214 1.6498223241 0.3516063770 
O 7.0969119430 4.0517388676 1.8982917642 

