&CONTROL
   calculation      = 'scf'
   verbosity        = 'high'
   nstep            = 1
   tstress          = .true.
   tprnfor          = .true.
   outdir           = 'new_calculations/'
   prefix           = 'myprefix'
   pseudo_dir       = '/home/pragov/projects/rrg-bengioy-ad/pragov/crystal_structure_design/SSSP'
/
&SYSTEM
   ecutwfc          = 30
   ecutrho          = 240
   occupations      = 'smearing'
   degauss          = 0.001
   smearing         = 'mp'
   nspin            = 1
   ntyp             = 2
   nat              = 14
   ibrav            = 0
/
&ELECTRONS
   electron_maxstep = 100
   mixing_mode      = 'plain'
   mixing_beta      = 0.7
   diagonalization  = 'david'
/
&IONS
/
&CELL
/

ATOMIC_SPECIES
Eu 151.964 Eu.GGA-PBE-paw-v1.0.UPF
C 12.011 C.pbe-n-kjpaw_psl.1.0.0.UPF

K_POINTS gamma

CELL_PARAMETERS angstrom
4.34336934000000 0.00000000000000 0.00000000000000
-2.17168401349992 3.76146856548887 0.00000000000000
0.00000000000000 0.00000000000000 9.49093800000000

ATOMIC_POSITIONS angstrom
Eu -0.0000017340 2.5076469641 2.3727345000 
Eu 2.1716870605 1.2538216013 7.1182035000 
C 0.7242375112 1.2544159134 4.7454690000 
C 2.8948947554 0.0000000000 4.7454690000 
C -1.4474469402 2.5070526521 4.7454690000 
C 1.4474478153 2.5070526521 4.7454690000 
C 3.6191322667 1.2544159134 4.7454690000 
C 1.4484745846 0.0000000000 4.7454690000 
C 1.4474478153 2.5070526521 0.0000000000 
C 1.4484745846 0.0000000000 0.0000000000 
C 3.6191322667 1.2544159134 0.0000000000 
C 0.7242375112 1.2544159134 0.0000000000 
C -1.4474469402 2.5070526521 0.0000000000 
C 2.8948947554 0.0000000000 0.0000000000 

