&CONTROL
   calculation      = 'scf'
   verbosity        = 'high'
   nstep            = 1
   tstress          = .true.
   tprnfor          = .true.
   outdir           = 'new_calculations/'
   prefix           = 'myprefix'
   pseudo_dir       = '/home/pragov/projects/rrg-bengioy-ad/pragov/crystal_structure_design/SSSP'
/
&SYSTEM
   ecutwfc          = 30
   ecutrho          = 240
   occupations      = 'smearing'
   degauss          = 0.001
   smearing         = 'mp'
   nspin            = 1
   ntyp             = 4
   nat              = 7
   ibrav            = 0
/
&ELECTRONS
   electron_maxstep = 100
   mixing_mode      = 'plain'
   mixing_beta      = 0.7
   diagonalization  = 'david'
/
&IONS
/
&CELL
/

ATOMIC_SPECIES
Eu 151.964 Eu.GGA-PBE-paw-v1.0.UPF
C 12.011 C.pbe-n-kjpaw_psl.1.0.0.UPF
N 14.007 N.pbe-n-radius_5.UPF
O 15.999 O.pbe-n-kjpaw_psl.0.1.UPF

K_POINTS gamma

CELL_PARAMETERS angstrom
3.86207743000000 0.00000000000000 0.00000000000000
-1.93103814408973 3.34465749537765 0.00000000000000
0.00000000000000 0.00000000000000 8.35405500000000

ATOMIC_POSITIONS angstrom
Eu 1.9310408363 1.1148847169 6.8566240575 
Eu -0.0000015504 2.2297727785 1.4974309425 
C 0.0000000000 0.0000000000 4.1770275000 
N 0.0000000000 0.0000000000 2.9398671410 
N 0.0000000000 0.0000000000 5.4141878590 
O 1.9310408363 1.1148847169 0.8638928276 
O -0.0000015504 2.2297727785 7.4901621725 

