&CONTROL
   calculation      = 'scf'
   verbosity        = 'high'
   nstep            = 1
   tstress          = .true.
   tprnfor          = .true.
   outdir           = 'new_calculations/'
   prefix           = 'myprefix'
   pseudo_dir       = '/home/pragov/projects/rrg-bengioy-ad/pragov/crystal_structure_design/SSSP'
/
&SYSTEM
   ecutwfc          = 30
   ecutrho          = 240
   occupations      = 'smearing'
   degauss          = 0.001
   smearing         = 'mp'
   nspin            = 1
   ntyp             = 4
   nat              = 18
   ibrav            = 0
/
&ELECTRONS
   electron_maxstep = 100
   mixing_mode      = 'plain'
   mixing_beta      = 0.7
   diagonalization  = 'david'
/
&IONS
/
&CELL
/

ATOMIC_SPECIES
Ba 137.327 Ba.pbe-spn-kjpaw_psl.1.0.0.UPF
In 114.818 In.pbe-dn-rrkjus_psl.0.2.2.UPF
Sb 121.76 sb_pbe_v1.4.uspp.F.UPF
Se 78.971 Se_pbe_v1.uspp.F.UPF

K_POINTS gamma

CELL_PARAMETERS angstrom
9.93179405000000 0.00000000000000 0.00000000000000
-8.97960690784905 4.24348828584752 0.00000000000000
0.00000000000000 0.00000000000000 13.38214400000000

ATOMIC_POSITIONS angstrom
Ba 7.7766697082 0.4835836816 10.8807402614 
Ba -6.8244825661 3.7599046043 4.1896682614 
Ba 7.5084493085 0.5437690759 2.5662669906 
Ba -6.5562621663 3.6997192099 9.2573389906 
In 1.6417734147 1.8601797685 0.7006890598 
In -0.6895862726 2.3833085174 7.3917610598 
Sb 5.7958139263 0.9280636186 6.3903350779 
Sb -4.8436267842 3.3154246673 13.0814070779 
Se 9.0670135070 0.1940462323 5.9010303647 
Se -8.1148263648 4.0494420535 12.5921023647 
Se 4.5892854566 1.1987939277 11.1967060634 
Se -3.6370983145 3.0446943581 4.5056340634 
Se 4.0685600312 1.3156383777 1.7408162022 
Se -3.1163728891 2.9278499082 8.4318882022 
Se 3.2191733686 1.5062304105 6.6864819246 
Se -2.2669862265 2.7372578753 13.3775539246 
Se 0.4380816552 2.1302735544 2.9846329585 
Se 0.5141054870 2.1132147315 9.6757049585 

