&CONTROL
   calculation      = 'scf'
   verbosity        = 'high'
   nstep            = 1
   tstress          = .true.
   tprnfor          = .true.
   outdir           = 'new_calculations/'
   prefix           = 'myprefix'
   pseudo_dir       = '/home/pragov/projects/rrg-bengioy-ad/pragov/crystal_structure_design/SSSP'
/
&SYSTEM
   ecutwfc          = 30
   ecutrho          = 240
   occupations      = 'smearing'
   degauss          = 0.001
   smearing         = 'mp'
   nspin            = 1
   ntyp             = 3
   nat              = 20
   ibrav            = 0
/
&ELECTRONS
   electron_maxstep = 100
   mixing_mode      = 'plain'
   mixing_beta      = 0.7
   diagonalization  = 'david'
/
&IONS
/
&CELL
/

ATOMIC_SPECIES
Ca 40.078 Ca_pbe_v1.uspp.F.UPF
Cr 51.9961 cr_pbe_v1.5.uspp.F.UPF
O 15.999 O.pbe-n-kjpaw_psl.0.1.UPF

K_POINTS gamma

CELL_PARAMETERS angstrom
5.33343300000000 0.00000000000000 0.00000000000000
-0.00004252054770 5.47225499983480 0.00000000000000
-0.00002432249976 -0.00007676342642 7.54875999957051

ATOMIC_POSITIONS angstrom
Ca 5.2914455581 0.2457561966 1.8873258776 
Ca 2.6264754944 2.4897254252 5.6614567683 
Ca 2.7085813728 2.9810190832 1.8870314759 
Ca 0.0401498962 5.2267065949 5.6616530360 
Cr 2.6666281669 0.0011599670 7.5486845120 
Cr 0.0006347441 2.7370741983 0.0001736215 
Cr 5.3332715705 2.7368059835 3.7743950973 
Cr 2.6660643262 0.0000874815 3.7742516709 
O 4.9219022355 2.8527110434 5.6614945121 
O 2.2538717623 5.3549818003 1.8872654875 
O 3.0780650425 0.1161074557 5.6616530360 
O 0.4126052777 2.6193194436 1.8871145123 
O 3.7989271725 1.6252736685 3.4729731105 
O 1.1319353936 1.1104596826 4.0752509271 
O 4.2013396510 4.3614498362 0.3014748281 
O 1.5349407738 3.8468285329 7.2478664260 
O 3.7987080539 1.6253278102 0.3013163041 
O 1.1316264968 1.1106791434 7.2479268161 
O 1.5350469978 3.8468443777 4.0753339634 
O 4.2014734366 4.3612096398 3.4729429155 

