&CONTROL
   calculation      = 'scf'
   verbosity        = 'high'
   nstep            = 1
   tstress          = .true.
   tprnfor          = .true.
   outdir           = 'new_calculations/'
   prefix           = 'myprefix'
   pseudo_dir       = '/home/pragov/projects/rrg-bengioy-ad/pragov/crystal_structure_design/SSSP'
/
&SYSTEM
   ecutwfc          = 30
   ecutrho          = 240
   occupations      = 'smearing'
   degauss          = 0.001
   smearing         = 'mp'
   nspin            = 1
   ntyp             = 3
   nat              = 13
   ibrav            = 0
/
&ELECTRONS
   electron_maxstep = 100
   mixing_mode      = 'plain'
   mixing_beta      = 0.7
   diagonalization  = 'david'
/
&IONS
/
&CELL
/

ATOMIC_SPECIES
Tb 158.92535 Tb.GGA-PBE-paw-v1.0.UPF
Ga 69.723 Ga.pbe-dn-kjpaw_psl.1.0.0.UPF
Co 58.933194 Co_pbe_v1.2.uspp.F.UPF

K_POINTS gamma

CELL_PARAMETERS angstrom
6.41375523000000 0.00000000000000 0.00000000000000
-4.51066269206292 4.55962479035107 0.00000000000000
-0.95154626847784 -2.27981239399987 5.91889105301515

ATOMIC_POSITIONS angstrom
Tb 0.0000000000 0.0000000000 0.0000000000 
Ga 1.8777872724 -0.7837493452 2.0347845284 
Ga 3.5844216891 -1.4960630488 3.8841065246 
Ga -1.8777872720 0.7837493460 2.0347845284 
Ga -3.5844216885 1.4960630504 3.8841065246 
Co -1.2292974373 0.5130831795 4.5868150271 
Co 2.1808437068 1.7667292168 1.3320760259 
Co 1.2292974381 -0.5130831777 4.5868150271 
Co -0.2777511686 2.7928955740 1.3320760259 
Co 0.4757731347 1.1399061982 2.9594455265 
Co -0.4757731342 -1.1399061970 2.9594455265 
Co -2.2553313460 2.2798123952 0.0000000000 
Co 3.2068776150 0.0000000000 0.0000000000 

