&CONTROL
   calculation      = 'scf'
   verbosity        = 'high'
   nstep            = 1
   tstress          = .true.
   tprnfor          = .true.
   outdir           = 'new_calculations/'
   prefix           = 'myprefix'
   pseudo_dir       = '/home/pragov/projects/rrg-bengioy-ad/pragov/crystal_structure_design/SSSP'
/
&SYSTEM
   ecutwfc          = 30
   ecutrho          = 240
   occupations      = 'smearing'
   degauss          = 0.001
   smearing         = 'mp'
   nspin            = 1
   ntyp             = 3
   nat              = 10
   ibrav            = 0
/
&ELECTRONS
   electron_maxstep = 100
   mixing_mode      = 'plain'
   mixing_beta      = 0.7
   diagonalization  = 'david'
/
&IONS
/
&CELL
/

ATOMIC_SPECIES
Sc 44.955908 Sc_ONCV_PBE-1.0.oncvpsp.upf
In 114.818 In.pbe-dn-rrkjus_psl.0.2.2.UPF
Ni 58.6934 ni_pbe_v1.4.uspp.F.UPF

K_POINTS gamma

CELL_PARAMETERS angstrom
7.14297800000000 0.00000000000000 0.00000000000000
0.00000000000000 7.14297800000000 0.00000000000000
0.00000000000000 0.00000000000000 3.37771200000000

ATOMIC_POSITIONS angstrom
Sc 4.7970240214 1.2255350214 1.6888560000 
Sc 1.2255350214 2.3459539786 1.6888560000 
Sc 5.9174429786 4.7970240214 1.6888560000 
Sc 2.3459539786 5.9174429786 1.6888560000 
In 0.0000000000 0.0000000000 0.0000000000 
In 3.5714890000 3.5714890000 0.0000000000 
Ni 6.2664131688 2.6949241688 0.0000000000 
Ni 2.6949241688 0.8765648312 0.0000000000 
Ni 4.4480538312 6.2664131688 0.0000000000 
Ni 0.8765648312 4.4480538312 0.0000000000 

