&CONTROL
   calculation      = 'scf'
   verbosity        = 'high'
   nstep            = 1
   tstress          = .true.
   tprnfor          = .true.
   outdir           = 'new_calculations/'
   prefix           = 'myprefix'
   pseudo_dir       = '/home/pragov/projects/rrg-bengioy-ad/pragov/crystal_structure_design/SSSP'
/
&SYSTEM
   ecutwfc          = 30
   ecutrho          = 240
   occupations      = 'smearing'
   degauss          = 0.001
   smearing         = 'mp'
   nspin            = 1
   ntyp             = 2
   nat              = 7
   ibrav            = 0
/
&ELECTRONS
   electron_maxstep = 100
   mixing_mode      = 'plain'
   mixing_beta      = 0.7
   diagonalization  = 'david'
/
&IONS
/
&CELL
/

ATOMIC_SPECIES
W 183.84 W_pbe_v1.2.uspp.F.UPF
Br 79.904 br_pbe_v1.4.uspp.F.UPF

K_POINTS gamma

CELL_PARAMETERS angstrom
7.44515593000000 0.00000000000000 0.00000000000000
4.17944013901189 6.16138190233574 0.00000000000000
4.17943919828576 2.21522716878535 5.74938300077087

ATOMIC_POSITIONS angstrom
W 0.0000000000 0.0000000000 0.0000000000 
Br 5.3965516640 3.9792571418 4.5044403527 
Br 9.4814957610 3.3708169674 5.2859367358 
Br 8.1121520052 7.0732641339 3.6557106847 
Br 10.4074836033 4.3973519293 1.2449426481 
Br 6.3225395063 5.0057921037 0.4634462649 
Br 7.6918832621 1.3033449373 2.0936723160 

