&CONTROL
   calculation      = 'scf'
   verbosity        = 'high'
   nstep            = 1
   tstress          = .true.
   tprnfor          = .true.
   outdir           = 'new_calculations/'
   prefix           = 'myprefix'
   pseudo_dir       = '/home/pragov/projects/rrg-bengioy-ad/pragov/crystal_structure_design/SSSP'
/
&SYSTEM
   ecutwfc          = 30
   ecutrho          = 240
   occupations      = 'smearing'
   degauss          = 0.001
   smearing         = 'mp'
   nspin            = 1
   ntyp             = 3
   nat              = 4
   ibrav            = 0
/
&ELECTRONS
   electron_maxstep = 100
   mixing_mode      = 'plain'
   mixing_beta      = 0.7
   diagonalization  = 'david'
/
&IONS
/
&CELL
/

ATOMIC_SPECIES
Li 6.94 li_pbe_v1.4.uspp.F.UPF
Tl 204.38 Tl_pbe_v1.2.uspp.F.UPF
Cd 112.414 Cd.pbe-dn-rrkjus_psl.0.3.1.UPF

K_POINTS gamma

CELL_PARAMETERS angstrom
4.80577911000000 0.00000000000000 0.00000000000000
2.40288955500000 4.16192679423657 0.00000000000000
2.40288955500000 1.38730893141219 3.92390221200889

ATOMIC_POSITIONS angstrom
Li 2.4028895550 1.3873089314 0.9809755530 
Li 7.2086686650 4.1619267942 2.9429266590 
Tl 0.0000000000 0.0000000000 0.0000000000 
Cd 4.8057791100 2.7746178628 1.9619511060 

