&CONTROL
   calculation      = 'scf'
   verbosity        = 'high'
   nstep            = 1
   tstress          = .true.
   tprnfor          = .true.
   outdir           = 'new_calculations/'
   prefix           = 'myprefix'
   pseudo_dir       = '/home/pragov/projects/rrg-bengioy-ad/pragov/crystal_structure_design/SSSP'
/
&SYSTEM
   ecutwfc          = 30
   ecutrho          = 240
   occupations      = 'smearing'
   degauss          = 0.001
   smearing         = 'mp'
   nspin            = 1
   ntyp             = 3
   nat              = 9
   ibrav            = 0
/
&ELECTRONS
   electron_maxstep = 100
   mixing_mode      = 'plain'
   mixing_beta      = 0.7
   diagonalization  = 'david'
/
&IONS
/
&CELL
/

ATOMIC_SPECIES
Nd 144.242 Nd.GGA-PBE-paw-v1.0.UPF
In 114.818 In.pbe-dn-rrkjus_psl.0.2.2.UPF
Rh 102.9055 Rh_ONCV_PBE-1.0.oncvpsp.upf

K_POINTS gamma

CELL_PARAMETERS angstrom
7.63531050000000 0.00000000000000 0.00000000000000
-3.81765574740708 6.61237257160393 0.00000000000000
0.00000000000000 0.00000000000000 4.08413800000000

ATOMIC_POSITIONS angstrom
Nd 4.4714974294 0.0000000000 2.0420690000 
Nd 1.5819063292 2.7399423730 2.0420690000 
Nd -2.2357490060 3.8724301986 2.0420690000 
In 1.8922819071 0.0000000000 0.0000000000 
In 2.8715139223 4.9736084401 0.0000000000 
In 6.6891694232 1.6387641315 0.0000000000 
Rh 0.0000000000 0.0000000000 2.0420690000 
Rh -0.0000041493 4.4082505852 0.0000000000 
Rh 3.8176589019 2.2041219864 0.0000000000 

