&CONTROL
   calculation      = 'scf'
   verbosity        = 'high'
   nstep            = 1
   tstress          = .true.
   tprnfor          = .true.
   outdir           = 'new_calculations/'
   prefix           = 'myprefix'
   pseudo_dir       = '/home/pragov/projects/rrg-bengioy-ad/pragov/crystal_structure_design/SSSP'
/
&SYSTEM
   ecutwfc          = 30
   ecutrho          = 240
   occupations      = 'smearing'
   degauss          = 0.001
   smearing         = 'mp'
   nspin            = 1
   ntyp             = 3
   nat              = 10
   ibrav            = 0
/
&ELECTRONS
   electron_maxstep = 100
   mixing_mode      = 'plain'
   mixing_beta      = 0.7
   diagonalization  = 'david'
/
&IONS
/
&CELL
/

ATOMIC_SPECIES
K 39.0983 K.pbe-spn-kjpaw_psl.1.0.0.UPF
Cl 35.45 cl_pbe_v1.4.uspp.F.UPF
O 15.999 O.pbe-n-kjpaw_psl.0.1.UPF

K_POINTS gamma

CELL_PARAMETERS angstrom
7.37415510000000 0.00000000000000 0.00000000000000
-0.00693671612399 7.37415183738614 0.00000000000000
0.00000000000000 0.00000000000000 5.27561400000000

ATOMIC_POSITIONS angstrom
K 2.1613180536 5.2079357419 0.0000000000 
K 1.5763434686 1.4582680225 0.0000000000 
K 5.9104338405 5.7964373035 0.0000000000 
K 3.8647323263 7.2077835978 2.6378070000 
K 0.1630734494 3.5026410071 2.6378070000 
K 5.2017521567 2.1703603688 0.0000000000 
Cl 7.3671135384 0.0070349409 2.6378070000 
Cl 3.6609713833 3.7096924424 2.6378070000 
O 0.0374959307 3.6312904600 0.0000000000 
O 3.7359648021 7.3332400430 0.0000000000 

