&CONTROL
   calculation      = 'scf'
   verbosity        = 'high'
   nstep            = 1
   tstress          = .true.
   tprnfor          = .true.
   outdir           = 'new_calculations/'
   prefix           = 'myprefix'
   pseudo_dir       = '/home/pragov/projects/rrg-bengioy-ad/pragov/crystal_structure_design/SSSP'
/
&SYSTEM
   ecutwfc          = 30
   ecutrho          = 240
   occupations      = 'smearing'
   degauss          = 0.001
   smearing         = 'mp'
   nspin            = 1
   ntyp             = 3
   nat              = 10
   ibrav            = 0
/
&ELECTRONS
   electron_maxstep = 100
   mixing_mode      = 'plain'
   mixing_beta      = 0.7
   diagonalization  = 'david'
/
&IONS
/
&CELL
/

ATOMIC_SPECIES
Cs 132.90545196 Cs_pbe_v1.uspp.F.UPF
Pd 106.42 Pd_ONCV_PBE-1.0.oncvpsp.upf
F 18.998403163 f_pbe_v1.4.uspp.F.UPF

K_POINTS gamma

CELL_PARAMETERS angstrom
6.88166219000000 0.00000000000000 0.00000000000000
3.44083109500000 5.95969427680285 0.00000000000000
3.44083109500000 1.98656475893429 5.61885364923461

ATOMIC_POSITIONS angstrom
Cs 10.3224932850 5.9596942768 4.2141402369 
Cs 3.4408310950 1.9865647589 1.4047134123 
Cs 6.8816621900 3.9731295179 2.8094268246 
Pd 0.0000000000 0.0000000000 0.0000000000 
F 6.8816621900 1.6892077996 1.1944502899 
F 4.9037279617 2.8311686587 4.4244033593 
F 6.8816621900 6.2570512362 4.4244033593 
F 4.9037279617 5.1150903770 1.1944502899 
F 8.8595964183 2.8311686587 4.4244033593 
F 8.8595964183 5.1150903770 1.1944502899 

