&CONTROL
   calculation      = 'scf'
   verbosity        = 'high'
   nstep            = 1
   tstress          = .true.
   tprnfor          = .true.
   outdir           = 'new_calculations/'
   prefix           = 'myprefix'
   pseudo_dir       = '/home/pragov/projects/rrg-bengioy-ad/pragov/crystal_structure_design/SSSP'
/
&SYSTEM
   ecutwfc          = 30
   ecutrho          = 240
   occupations      = 'smearing'
   degauss          = 0.001
   smearing         = 'mp'
   nspin            = 1
   ntyp             = 3
   nat              = 14
   ibrav            = 0
/
&ELECTRONS
   electron_maxstep = 100
   mixing_mode      = 'plain'
   mixing_beta      = 0.7
   diagonalization  = 'david'
/
&IONS
/
&CELL
/

ATOMIC_SPECIES
Tl 204.38 Tl_pbe_v1.2.uspp.F.UPF
Cr 51.9961 cr_pbe_v1.5.uspp.F.UPF
Te 127.6 Te_pbe_v1.uspp.F.UPF

K_POINTS gamma

CELL_PARAMETERS angstrom
10.39602173000000 0.00000000000000 0.00000000000000
9.63024269314807 3.91608139365111 0.00000000000000
2.32193847141964 0.45404873585005 9.25838400139952

ATOMIC_POSITIONS angstrom
Tl 21.9884998011 4.2997911705 9.2515513140 
Cr 17.8523219942 3.4909728803 7.6930319847 
Cr 4.4811693784 0.8762804512 1.5558806898 
Cr 4.3357257341 0.8478393432 4.7917414486 
Cr 18.0016020605 3.5201641902 4.4723086838 
Cr 11.1829176293 2.1867890451 4.6260163750 
Te 13.3054922308 2.6018527199 6.2779527988 
Te 9.0472616158 1.7691673359 2.9902728648 
Te 13.4270583372 2.6256246405 0.0631977292 
Te 8.9257247398 1.7454011312 9.1903719125 
Te 6.7405223512 1.3180907635 6.0866282934 
Te 15.5996053695 3.0504602878 3.1813196186 
Te 20.1354690945 3.9374360693 6.1648801550 
Te 2.2257212372 0.4352337181 3.0881154669 

