&CONTROL
   calculation      = 'scf'
   verbosity        = 'high'
   nstep            = 1
   tstress          = .true.
   tprnfor          = .true.
   outdir           = 'new_calculations/'
   prefix           = 'myprefix'
   pseudo_dir       = '/home/pragov/projects/rrg-bengioy-ad/pragov/crystal_structure_design/SSSP'
/
&SYSTEM
   ecutwfc          = 30
   ecutrho          = 240
   occupations      = 'smearing'
   degauss          = 0.001
   smearing         = 'mp'
   nspin            = 1
   ntyp             = 3
   nat              = 5
   ibrav            = 0
/
&ELECTRONS
   electron_maxstep = 100
   mixing_mode      = 'plain'
   mixing_beta      = 0.7
   diagonalization  = 'david'
/
&IONS
/
&CELL
/

ATOMIC_SPECIES
Bi 208.9804 Bi_pbe_v1.uspp.F.UPF
Se 78.971 Se_pbe_v1.uspp.F.UPF
O 15.999 O.pbe-n-kjpaw_psl.0.1.UPF

K_POINTS gamma

CELL_PARAMETERS angstrom
6.79346002000000 0.00000000000000 0.00000000000000
4.52222946833997 5.06956996983136 0.00000000000000
-5.65784474399736 -2.53478498483834 2.77754513497044

ATOMIC_POSITIONS angstrom
Bi 3.9924807751 1.7886811637 0.0000000000 
Bi 7.3232087132 3.2808888061 0.0000000000 
Se 0.0000000000 0.0000000000 0.0000000000 
O 2.2611147343 2.5347849850 1.3887725675 
O 3.3967300101 0.0000000000 1.3887725675 

