&CONTROL
   calculation      = 'scf'
   verbosity        = 'high'
   nstep            = 1
   tstress          = .true.
   tprnfor          = .true.
   outdir           = 'new_calculations/'
   prefix           = 'myprefix'
   pseudo_dir       = '/home/pragov/projects/rrg-bengioy-ad/pragov/crystal_structure_design/SSSP'
/
&SYSTEM
   ecutwfc          = 30
   ecutrho          = 240
   occupations      = 'smearing'
   degauss          = 0.001
   smearing         = 'mp'
   nspin            = 1
   ntyp             = 3
   nat              = 4
   ibrav            = 0
/
&ELECTRONS
   electron_maxstep = 100
   mixing_mode      = 'plain'
   mixing_beta      = 0.7
   diagonalization  = 'david'
/
&IONS
/
&CELL
/

ATOMIC_SPECIES
Ca 40.078 Ca_pbe_v1.uspp.F.UPF
Ag 107.8682 Ag_ONCV_PBE-1.0.oncvpsp.upf
Rh 102.9055 Rh_ONCV_PBE-1.0.oncvpsp.upf

K_POINTS gamma

CELL_PARAMETERS angstrom
5.04624774000000 0.00000000000000 0.00000000000000
2.52312387000000 4.37017873662981 0.00000000000000
2.52312387000000 1.45672624554327 4.12024402622426

ATOMIC_POSITIONS angstrom
Ca 7.5693716100 4.3701787366 3.0901830197 
Ca 2.5231238700 1.4567262455 1.0300610066 
Ag 5.0462477400 2.9134524911 2.0601220131 
Rh 0.0000000000 0.0000000000 0.0000000000 

