&CONTROL
   calculation      = 'scf'
   verbosity        = 'high'
   nstep            = 1
   tstress          = .true.
   tprnfor          = .true.
   outdir           = 'new_calculations/'
   prefix           = 'myprefix'
   pseudo_dir       = '/home/pragov/projects/rrg-bengioy-ad/pragov/crystal_structure_design/SSSP'
/
&SYSTEM
   ecutwfc          = 30
   ecutrho          = 240
   occupations      = 'smearing'
   degauss          = 0.001
   smearing         = 'mp'
   nspin            = 1
   ntyp             = 3
   nat              = 18
   ibrav            = 0
/
&ELECTRONS
   electron_maxstep = 100
   mixing_mode      = 'plain'
   mixing_beta      = 0.7
   diagonalization  = 'david'
/
&IONS
/
&CELL
/

ATOMIC_SPECIES
Li 6.94 li_pbe_v1.4.uspp.F.UPF
V 50.9415 v_pbe_v1.4.uspp.F.UPF
F 18.998403163 f_pbe_v1.4.uspp.F.UPF

K_POINTS gamma

CELL_PARAMETERS angstrom
5.23021800000000 0.00000000000000 0.00000000000000
0.00000000000000 5.20005500000000 0.00000000000000
0.00000000000000 5.15406300033728 7.63887799943194

ATOMIC_POSITIONS angstrom
Li 1.2464184818 5.1678552928 3.8392389715 
Li 1.5347394793 7.7224545511 5.9173575368 
Li 3.9837995182 2.5908237927 0.0197999718 
Li 3.6954785207 5.1454230510 2.0979185371 
V 1.3076329533 5.1601741080 7.6343863392 
V 3.9225850467 2.5831426078 3.8149473395 
F 1.0027217043 5.8283931531 5.8661617765 
F 4.9284605725 0.7301395940 0.5665984979 
F 4.8400803487 6.1422272374 3.3683250595 
F 2.2744073693 1.5883832007 0.3048141488 
F 2.4258378710 6.8777087033 3.3007439058 
F 3.5117880344 7.2870755429 5.5993892401 
F 4.2274962957 3.2513616529 2.0467227768 
F 0.3017574275 3.3071710942 4.3860374976 
F 0.3901376513 8.7192587376 7.1877640592 
F 2.9558106307 4.1654147008 4.1242531485 
F 2.8043801290 9.4547402035 7.1201829055 
F 1.7184299656 4.7100440428 1.7799502404 

