&CONTROL
   calculation      = 'scf'
   verbosity        = 'high'
   nstep            = 1
   tstress          = .true.
   tprnfor          = .true.
   outdir           = 'new_calculations/'
   prefix           = 'myprefix'
   pseudo_dir       = '/home/pragov/projects/rrg-bengioy-ad/pragov/crystal_structure_design/SSSP'
/
&SYSTEM
   ecutwfc          = 30
   ecutrho          = 240
   occupations      = 'smearing'
   degauss          = 0.001
   smearing         = 'mp'
   nspin            = 1
   ntyp             = 3
   nat              = 16
   ibrav            = 0
/
&ELECTRONS
   electron_maxstep = 100
   mixing_mode      = 'plain'
   mixing_beta      = 0.7
   diagonalization  = 'david'
/
&IONS
/
&CELL
/

ATOMIC_SPECIES
Li 6.94 li_pbe_v1.4.uspp.F.UPF
V 50.9415 v_pbe_v1.4.uspp.F.UPF
O 15.999 O.pbe-n-kjpaw_psl.0.1.UPF

K_POINTS gamma

CELL_PARAMETERS angstrom
6.20520705000000 0.00000000000000 0.00000000000000
-3.09583142044323 5.26443297295065 0.00000000000000
3.07752633985143 1.76897083906353 4.95892353034844

ATOMIC_POSITIONS angstrom
Li 4.6571173648 2.6323360119 0.0000694249 
Li 1.5545107440 2.6323412763 0.0000694249 
V 7.7437342383 0.8846189692 2.4795262312 
V 6.1958402530 3.5168407202 2.4795262312 
V 3.0932305730 3.5168371822 2.4795163133 
V 4.6411182527 0.8846225072 2.4795361490 
V 3.1023861590 0.0001335497 0.0000644660 
V 6.2049896338 0.0001370877 0.0000743839 
O -0.0215021315 5.3249187547 3.6489346192 
O 3.0827674739 5.3303000095 3.6400680639 
O 3.1037059368 1.7033674065 1.3189893574 
O 6.2079693186 1.7087556947 1.3101277610 
O -1.5519325192 4.4462278735 1.2795312028 
O 1.5480902603 4.4479131444 1.2803742198 
O 4.6383584021 2.5857893536 3.6786782425 
O 7.7383874098 2.5874500288 3.6795113417 

