&CONTROL
   calculation      = 'scf'
   verbosity        = 'high'
   nstep            = 1
   tstress          = .true.
   tprnfor          = .true.
   outdir           = 'new_calculations/'
   prefix           = 'myprefix'
   pseudo_dir       = '/home/pragov/projects/rrg-bengioy-ad/pragov/crystal_structure_design/SSSP'
/
&SYSTEM
   ecutwfc          = 30
   ecutrho          = 240
   occupations      = 'smearing'
   degauss          = 0.001
   smearing         = 'mp'
   nspin            = 1
   ntyp             = 3
   nat              = 16
   ibrav            = 0
/
&ELECTRONS
   electron_maxstep = 100
   mixing_mode      = 'plain'
   mixing_beta      = 0.7
   diagonalization  = 'david'
/
&IONS
/
&CELL
/

ATOMIC_SPECIES
Ag 107.8682 Ag_ONCV_PBE-1.0.oncvpsp.upf
P 30.973761998 P.pbe-n-rrkjus_psl.1.0.0.UPF
Se 78.971 Se_pbe_v1.uspp.F.UPF

K_POINTS gamma

CELL_PARAMETERS angstrom
6.93602300000000 0.00000000000000 0.00000000000000
0.00000000000000 7.26074000000000 0.00000000000000
0.00000000000000 0.00000000000000 8.21614000000000

ATOMIC_POSITIONS angstrom
Ag 0.0980198770 5.8973109821 6.0678001451 
Ag 3.5660313770 1.3634290179 6.2564098549 
Ag 3.5660313770 1.3634290179 1.9597301451 
Ag 0.0980198770 5.8973109821 2.1483398549 
Ag 6.8239992925 2.5850194800 0.0000000000 
Ag 3.3559877925 4.6757205200 4.1080700000 
P 6.9067044308 2.3032301606 4.1080700000 
P 3.4386929308 4.9575098394 0.0000000000 
Se 6.1887774981 1.1991039503 2.2523151066 
Se 2.7207659981 6.0616360497 1.8557548934 
Se 2.5853540211 2.8695097947 0.0000000000 
Se 6.0533655211 4.3912302053 4.1080700000 
Se 2.7207659981 6.0616360497 6.3603851066 
Se 6.1887774981 1.1991039503 5.9638248934 
Se 2.2259847974 2.2545105952 4.1080700000 
Se 5.6939962974 5.0062294048 0.0000000000 

