&CONTROL
   calculation      = 'scf'
   verbosity        = 'high'
   nstep            = 1
   tstress          = .true.
   tprnfor          = .true.
   outdir           = 'new_calculations/'
   prefix           = 'myprefix'
   pseudo_dir       = '/home/pragov/projects/rrg-bengioy-ad/pragov/crystal_structure_design/SSSP'
/
&SYSTEM
   ecutwfc          = 30
   ecutrho          = 240
   occupations      = 'smearing'
   degauss          = 0.001
   smearing         = 'mp'
   nspin            = 1
   ntyp             = 3
   nat              = 4
   ibrav            = 0
/
&ELECTRONS
   electron_maxstep = 100
   mixing_mode      = 'plain'
   mixing_beta      = 0.7
   diagonalization  = 'david'
/
&IONS
/
&CELL
/

ATOMIC_SPECIES
Nd 144.242 Nd.GGA-PBE-paw-v1.0.UPF
Cu 63.546 Cu_pbe_v1.2.uspp.F.UPF
O 15.999 O.pbe-n-kjpaw_psl.0.1.UPF

K_POINTS gamma

CELL_PARAMETERS angstrom
6.12237451000000 0.00000000000000 0.00000000000000
4.96900793329034 3.57665063985782 0.00000000000000
4.96900777406310 1.60236155640928 3.19763399906173

ATOMIC_POSITIONS angstrom
Nd 8.0301951087 2.5895060981 1.5988169995 
Cu 0.0000000000 0.0000000000 0.0000000000 
O 14.3571215932 4.6297572368 2.8585121229 
O 1.7032686241 0.5492549595 0.3391218761 

