&CONTROL
   calculation      = 'scf'
   verbosity        = 'high'
   nstep            = 1
   tstress          = .true.
   tprnfor          = .true.
   outdir           = 'new_calculations/'
   prefix           = 'myprefix'
   pseudo_dir       = '/home/pragov/projects/rrg-bengioy-ad/pragov/crystal_structure_design/SSSP'
/
&SYSTEM
   ecutwfc          = 30
   ecutrho          = 240
   occupations      = 'smearing'
   degauss          = 0.001
   smearing         = 'mp'
   nspin            = 1
   ntyp             = 2
   nat              = 4
   ibrav            = 0
/
&ELECTRONS
   electron_maxstep = 100
   mixing_mode      = 'plain'
   mixing_beta      = 0.7
   diagonalization  = 'david'
/
&IONS
/
&CELL
/

ATOMIC_SPECIES
Li 6.94 li_pbe_v1.4.uspp.F.UPF
Mg 24.305 Mg.pbe-n-kjpaw_psl.0.3.0.UPF

K_POINTS gamma

CELL_PARAMETERS angstrom
6.00727738000000 0.00000000000000 0.00000000000000
2.70575320097560 5.36342065622956 0.00000000000000
-3.53239959585020 -4.02050989453576 2.72855910755787

ATOMIC_POSITIONS angstrom
Li 5.1784543760 1.3464467255 0.9061899509 
Mg 3.5352926362 4.0158100677 0.9145693559 
Mg 3.0063458874 0.0062491430 2.7276968829 
Mg -1.3596726137 -2.6813073136 2.7276968829 

