&CONTROL
   calculation      = 'scf'
   verbosity        = 'high'
   nstep            = 1
   tstress          = .true.
   tprnfor          = .true.
   outdir           = 'new_calculations/'
   prefix           = 'myprefix'
   pseudo_dir       = '/home/pragov/projects/rrg-bengioy-ad/pragov/crystal_structure_design/SSSP'
/
&SYSTEM
   ecutwfc          = 30
   ecutrho          = 240
   occupations      = 'smearing'
   degauss          = 0.001
   smearing         = 'mp'
   nspin            = 1
   ntyp             = 4
   nat              = 10
   ibrav            = 0
/
&ELECTRONS
   electron_maxstep = 100
   mixing_mode      = 'plain'
   mixing_beta      = 0.7
   diagonalization  = 'david'
/
&IONS
/
&CELL
/

ATOMIC_SPECIES
Dy 162.5 Dy.GGA-PBE-paw-v1.0.UPF
Re 186.207 Re_pbe_v1.2.uspp.F.UPF
Si 28.085 Si.pbe-n-rrkjus_psl.1.0.0.UPF
C 12.011 C.pbe-n-kjpaw_psl.1.0.0.UPF

K_POINTS gamma

CELL_PARAMETERS angstrom
5.79754195000000 0.00000000000000 0.00000000000000
-4.45476955279077 3.71032625163045 0.00000000000000
0.00000000000000 0.00000000000000 7.30260300000000

ATOMIC_POSITIONS angstrom
Dy 1.1193199405 1.6930552616 1.8256507500 
Dy 0.2234524567 2.0172709901 5.4769522500 
Re 4.0156492016 0.6448695438 0.4442100379 
Re -2.6728768044 3.0654567078 6.8583929621 
Re -2.6728768044 3.0654567078 4.0955115379 
Re 4.0156492016 0.6448695438 3.2070914621 
Si -1.7339188554 2.7256464780 1.8256507500 
Si 3.0766912526 0.9846797736 5.4769522500 
C 0.0000000000 0.0000000000 0.0000000000 
C 0.0000000000 0.0000000000 3.6513015000 

