&CONTROL
   calculation      = 'scf'
   verbosity        = 'high'
   nstep            = 1
   tstress          = .true.
   tprnfor          = .true.
   outdir           = 'new_calculations/'
   prefix           = 'myprefix'
   pseudo_dir       = '/home/pragov/projects/rrg-bengioy-ad/pragov/crystal_structure_design/SSSP'
/
&SYSTEM
   ecutwfc          = 30
   ecutrho          = 240
   occupations      = 'smearing'
   degauss          = 0.001
   smearing         = 'mp'
   nspin            = 1
   ntyp             = 2
   nat              = 2
   ibrav            = 0
/
&ELECTRONS
   electron_maxstep = 100
   mixing_mode      = 'plain'
   mixing_beta      = 0.7
   diagonalization  = 'david'
/
&IONS
/
&CELL
/

ATOMIC_SPECIES
Ce 140.116 Ce.GGA-PBE-paw-v1.0.UPF
S 32.06 s_pbe_v1.4.uspp.F.UPF

K_POINTS gamma

CELL_PARAMETERS angstrom
4.01819085000000 0.00000000000000 0.00000000000000
2.00909542500000 3.47985535335419 0.00000000000000
2.00909542500000 1.15995178445140 3.28083909054007

ATOMIC_POSITIONS angstrom
Ce 0.0000000000 0.0000000000 0.0000000000 
S 4.0181908500 2.3199035689 1.6404195453 

