&CONTROL
   calculation      = 'scf'
   verbosity        = 'high'
   nstep            = 1
   tstress          = .true.
   tprnfor          = .true.
   outdir           = 'new_calculations/'
   prefix           = 'myprefix'
   pseudo_dir       = '/home/pragov/projects/rrg-bengioy-ad/pragov/crystal_structure_design/SSSP'
/
&SYSTEM
   ecutwfc          = 30
   ecutrho          = 240
   occupations      = 'smearing'
   degauss          = 0.001
   smearing         = 'mp'
   nspin            = 1
   ntyp             = 4
   nat              = 20
   ibrav            = 0
/
&ELECTRONS
   electron_maxstep = 100
   mixing_mode      = 'plain'
   mixing_beta      = 0.7
   diagonalization  = 'david'
/
&IONS
/
&CELL
/

ATOMIC_SPECIES
Na 22.98976928 na_pbe_v1.5.uspp.F.UPF
V 50.9415 v_pbe_v1.4.uspp.F.UPF
Cu 63.546 Cu_pbe_v1.2.uspp.F.UPF
O 15.999 O.pbe-n-kjpaw_psl.0.1.UPF

K_POINTS gamma

CELL_PARAMETERS angstrom
6.35704389000000 0.00000000000000 0.00000000000000
-2.11901462953025 5.99347845739209 0.00000000000000
-2.11901462953025 -2.99673922769955 5.19050460171165

ATOMIC_POSITIONS angstrom
Na 0.0000000000 0.0000000000 0.0000000000 
V 1.0595073155 1.4983696148 2.5952523009 
V 3.1785219450 0.0000000000 0.0000000000 
V -1.0595073148 2.9967392287 0.0000000000 
V -1.0595073148 -1.4983696138 2.5952523009 
Cu 2.1190146302 2.9967392287 0.0000000000 
Cu 2.1190146302 -1.4983696138 2.5952523009 
Cu -2.1190146295 1.4983696148 2.5952523009 
O 2.6305214531 2.6350447913 2.6536870017 
O -0.5115068221 0.3616944384 2.5368176000 
O -2.1667221246 1.5321039087 4.5640366488 
O 4.2857367556 1.4646353210 0.6264679529 
O 1.6075035701 0.6189465211 4.2353271829 
O 0.5115110609 2.3777927086 0.9551774188 
O 2.1667221259 4.7186236353 0.9551774188 
O -0.0477074949 -1.7218844056 4.2353271829 
O 0.0477138531 2.8069587308 3.6088592300 
O 2.0713007778 0.1897804989 1.5816453717 
O -1.6075056879 3.9773711970 1.5816453717 
O 3.7265203189 -0.9806319673 3.6088592300 

