&CONTROL
   calculation      = 'scf'
   verbosity        = 'high'
   nstep            = 1
   tstress          = .true.
   tprnfor          = .true.
   outdir           = 'new_calculations/'
   prefix           = 'myprefix'
   pseudo_dir       = '/home/pragov/projects/rrg-bengioy-ad/pragov/crystal_structure_design/SSSP'
/
&SYSTEM
   ecutwfc          = 30
   ecutrho          = 240
   occupations      = 'smearing'
   degauss          = 0.001
   smearing         = 'mp'
   nspin            = 1
   ntyp             = 3
   nat              = 12
   ibrav            = 0
/
&ELECTRONS
   electron_maxstep = 100
   mixing_mode      = 'plain'
   mixing_beta      = 0.7
   diagonalization  = 'david'
/
&IONS
/
&CELL
/

ATOMIC_SPECIES
Pr 140.90766 Pr.GGA-PBE-paw-v1.0.UPF
Al 26.9815385 Al.pbe-n-kjpaw_psl.1.0.0.UPF
Au 196.966569 Au_ONCV_PBE-1.0.oncvpsp.upf

K_POINTS gamma

CELL_PARAMETERS angstrom
4.65030100000000 0.00000000000000 0.00000000000000
0.00000000000000 7.60172900000000 0.00000000000000
0.00000000000000 0.00000000000000 7.78655300000000

ATOMIC_POSITIONS angstrom
Pr 1.1625752500 0.0901793111 2.3776239586 
Pr 1.1625752500 3.8910438111 1.5156525415 
Pr 3.4877257500 7.5115496889 5.4089290414 
Pr 3.4877257500 3.7106851889 6.2709004586 
Al 1.1625752500 1.3324614660 7.1359397775 
Al 1.1625752500 5.1333259660 4.5438897225 
Al 3.4877257500 6.2692675340 0.6506132225 
Al 3.4877257500 2.4684030340 3.2426632775 
Au 1.1625752500 2.3076568725 4.5938326734 
Au 1.1625752500 6.1085213725 7.0859968266 
Au 3.4877257500 5.2940721275 3.1927203266 
Au 3.4877257500 1.4932076275 0.7005561734 

