&CONTROL
   calculation      = 'scf'
   verbosity        = 'high'
   nstep            = 1
   tstress          = .true.
   tprnfor          = .true.
   outdir           = 'new_calculations/'
   prefix           = 'myprefix'
   pseudo_dir       = '/home/pragov/projects/rrg-bengioy-ad/pragov/crystal_structure_design/SSSP'
/
&SYSTEM
   ecutwfc          = 30
   ecutrho          = 240
   occupations      = 'smearing'
   degauss          = 0.001
   smearing         = 'mp'
   nspin            = 1
   ntyp             = 3
   nat              = 16
   ibrav            = 0
/
&ELECTRONS
   electron_maxstep = 100
   mixing_mode      = 'plain'
   mixing_beta      = 0.7
   diagonalization  = 'david'
/
&IONS
/
&CELL
/

ATOMIC_SPECIES
Ho 164.93033 Ho.GGA-PBE-paw-v1.0.UPF
Cu 63.546 Cu_pbe_v1.2.uspp.F.UPF
S 32.06 s_pbe_v1.4.uspp.F.UPF

K_POINTS gamma

CELL_PARAMETERS angstrom
3.94496500000000 0.00000000000000 0.00000000000000
0.00000000000000 6.24253400000000 0.00000000000000
0.00000000000000 0.00000000000000 13.39075500000000

ATOMIC_POSITIONS angstrom
Ho 0.9862412500 3.1256430163 1.7852688474 
Ho 2.9587237500 3.1168909837 11.6054861526 
Ho 2.9587237500 0.0043760163 4.9101086526 
Ho 0.9862412500 6.2381579837 8.4806463474 
Cu 0.9862412500 0.7933511610 12.7903135458 
Cu 2.9587237500 3.9146181610 7.2958189542 
Cu 2.9587237500 5.4491828390 0.6004414542 
Cu 0.9862412500 2.3279158390 6.0949360458 
S 0.9862412500 1.6283088111 10.6471098173 
S 2.9587237500 4.6142251889 2.7436451827 
S 2.9587237500 4.7495758111 9.4390226827 
S 0.9862412500 1.4929581889 3.9517323173 
S 0.9862412500 4.6601764817 12.8563299679 
S 0.9862412500 4.7036245183 6.1609524680 
S 2.9587237500 1.5389094817 7.2298025320 
S 2.9587237500 1.5823575183 0.5344250321 

