&CONTROL
   calculation      = 'scf'
   verbosity        = 'high'
   nstep            = 1
   tstress          = .true.
   tprnfor          = .true.
   outdir           = 'new_calculations/'
   prefix           = 'myprefix'
   pseudo_dir       = '/home/pragov/projects/rrg-bengioy-ad/pragov/crystal_structure_design/SSSP'
/
&SYSTEM
   ecutwfc          = 30
   ecutrho          = 240
   occupations      = 'smearing'
   degauss          = 0.001
   smearing         = 'mp'
   nspin            = 1
   ntyp             = 3
   nat              = 20
   ibrav            = 0
/
&ELECTRONS
   electron_maxstep = 100
   mixing_mode      = 'plain'
   mixing_beta      = 0.7
   diagonalization  = 'david'
/
&IONS
/
&CELL
/

ATOMIC_SPECIES
K 39.0983 K.pbe-spn-kjpaw_psl.1.0.0.UPF
Cd 112.414 Cd.pbe-dn-rrkjus_psl.0.3.1.UPF
Cl 35.45 cl_pbe_v1.4.uspp.F.UPF

K_POINTS gamma

CELL_PARAMETERS angstrom
4.06972600000000 0.00000000000000 0.00000000000000
0.00000000000000 9.01363500000000 0.00000000000000
0.00000000000000 0.00000000000000 14.90677900000000

ATOMIC_POSITIONS angstrom
K 1.0174315000 3.8560330530 2.6589221702 
K 3.0522945000 5.1576019470 12.2478568298 
K 1.0174315000 8.3628505530 4.7944673298 
K 3.0522945000 0.6507844470 10.1123116702 
Cd 3.0522945000 7.4682562929 0.8128219385 
Cd 1.0174315000 1.5453787071 14.0939570615 
Cd 3.0522945000 2.9614387929 6.6405675615 
Cd 1.0174315000 6.0521962071 8.2662114385 
Cl 3.0522945000 8.8409157261 13.4019694735 
Cl 1.0174315000 0.1727192739 1.5048095265 
Cl 3.0522945000 4.3340982261 8.9581990265 
Cl 1.0174315000 4.6795367739 5.9485799735 
Cl 1.0174315000 6.0068756503 14.7556093542 
Cl 3.0522945000 3.0067593497 0.1511696458 
Cl 1.0174315000 1.5000581503 7.6045591458 
Cl 3.0522945000 7.5135768497 7.3022198542 
Cl 1.0174315000 7.1313446439 10.5726926329 
Cl 3.0522945000 1.8822903561 4.3340863671 
Cl 1.0174315000 2.6245271439 11.7874758671 
Cl 3.0522945000 6.3891078561 3.1193031329 

