&CONTROL
   calculation      = 'scf'
   verbosity        = 'high'
   nstep            = 1
   tstress          = .true.
   tprnfor          = .true.
   outdir           = 'new_calculations/'
   prefix           = 'myprefix'
   pseudo_dir       = '/home/pragov/projects/rrg-bengioy-ad/pragov/crystal_structure_design/SSSP'
/
&SYSTEM
   ecutwfc          = 30
   ecutrho          = 240
   occupations      = 'smearing'
   degauss          = 0.001
   smearing         = 'mp'
   nspin            = 1
   ntyp             = 2
   nat              = 3
   ibrav            = 0
/
&ELECTRONS
   electron_maxstep = 100
   mixing_mode      = 'plain'
   mixing_beta      = 0.7
   diagonalization  = 'david'
/
&IONS
/
&CELL
/

ATOMIC_SPECIES
Zr 91.224 Zr_pbe_v1.uspp.F.UPF
Se 78.971 Se_pbe_v1.uspp.F.UPF

K_POINTS gamma

CELL_PARAMETERS angstrom
3.80468400000000 0.00000000000000 0.00000000000000
-1.90234200230031 3.29495299604411 0.00000000000000
0.00000000000000 0.00000000000000 6.68690700000000

ATOMIC_POSITIONS angstrom
Zr 0.0000000000 0.0000000000 0.0000000000 
Se 1.9023439016 1.0983165670 5.0943331682 
Se -0.0000019039 2.1966364290 1.5925738318 

