&CONTROL
   calculation      = 'scf'
   verbosity        = 'high'
   nstep            = 1
   tstress          = .true.
   tprnfor          = .true.
   outdir           = 'new_calculations/'
   prefix           = 'myprefix'
   pseudo_dir       = '/home/pragov/projects/rrg-bengioy-ad/pragov/crystal_structure_design/SSSP'
/
&SYSTEM
   ecutwfc          = 30
   ecutrho          = 240
   occupations      = 'smearing'
   degauss          = 0.001
   smearing         = 'mp'
   nspin            = 1
   ntyp             = 4
   nat              = 19
   ibrav            = 0
/
&ELECTRONS
   electron_maxstep = 100
   mixing_mode      = 'plain'
   mixing_beta      = 0.7
   diagonalization  = 'david'
/
&IONS
/
&CELL
/

ATOMIC_SPECIES
Ba 137.327 Ba.pbe-spn-kjpaw_psl.1.0.0.UPF
Pr 140.90766 Pr.GGA-PBE-paw-v1.0.UPF
Co 58.933194 Co_pbe_v1.2.uspp.F.UPF
O 15.999 O.pbe-n-kjpaw_psl.0.1.UPF

K_POINTS gamma

CELL_PARAMETERS angstrom
3.97891600000000 0.00000000000000 0.00000000000000
0.00000000000000 7.75471500000000 0.00000000000000
0.00000000000000 0.00000000000000 7.95983600000000

ATOMIC_POSITIONS angstrom
Ba 1.9894580000 0.0000000000 1.9840846410 
Ba 1.9894580000 0.0000000000 5.9757513590 
Pr 1.9894580000 3.8773575000 2.1394845193 
Pr 1.9894580000 3.8773575000 5.8203514807 
Co 0.0000000000 5.7892747285 0.0000000000 
Co 0.0000000000 1.9654402715 0.0000000000 
Co 0.0000000000 5.8071881202 3.9799180000 
Co 0.0000000000 1.9475268798 3.9799180000 
O 1.9894580000 5.3843157565 0.0000000000 
O 1.9894580000 2.3703992435 0.0000000000 
O 0.0000000000 5.4936184644 1.8140466244 
O 0.0000000000 5.4936184644 6.1457893756 
O 0.0000000000 2.2610965356 6.1457893756 
O 0.0000000000 2.2610965356 1.8140466244 
O 0.0000000000 0.0000000000 0.0000000000 
O 1.9894580000 5.6655327413 3.9799180000 
O 1.9894580000 2.0891822587 3.9799180000 
O 0.0000000000 0.0000000000 3.9799180000 
O 0.0000000000 3.8773575000 3.9799180000 

