&CONTROL
   calculation      = 'scf'
   verbosity        = 'high'
   nstep            = 1
   tstress          = .true.
   tprnfor          = .true.
   outdir           = 'new_calculations/'
   prefix           = 'myprefix'
   pseudo_dir       = '/home/pragov/projects/rrg-bengioy-ad/pragov/crystal_structure_design/SSSP'
/
&SYSTEM
   ecutwfc          = 30
   ecutrho          = 240
   occupations      = 'smearing'
   degauss          = 0.001
   smearing         = 'mp'
   nspin            = 1
   ntyp             = 3
   nat              = 14
   ibrav            = 0
/
&ELECTRONS
   electron_maxstep = 100
   mixing_mode      = 'plain'
   mixing_beta      = 0.7
   diagonalization  = 'david'
/
&IONS
/
&CELL
/

ATOMIC_SPECIES
Na 22.98976928 na_pbe_v1.5.uspp.F.UPF
Mn 54.938044 mn_pbe_v1.5.uspp.F.UPF
O 15.999 O.pbe-n-kjpaw_psl.0.1.UPF

K_POINTS gamma

CELL_PARAMETERS angstrom
6.22925640000000 0.00000000000000 0.00000000000000
0.38947487587111 6.21706881239110 0.00000000000000
-3.30936563755329 -3.10853440583648 4.26482686889554

ATOMIC_POSITIONS angstrom
Na 0.0000000000 0.0000000000 0.0000000000 
Na 3.1146282002 0.0000000002 2.1324134344 
Mn 0.0973687193 1.5542672034 3.1986201517 
Mn 4.8666797380 3.1085344063 1.0662067172 
Mn -0.0973687187 -1.5542672028 3.1986201517 
Mn 1.7520515380 3.1085344063 1.0662067172 
O 0.1093740699 1.7947776187 1.2332898395 
O 1.3165240182 0.0030619067 3.3657032739 
O 1.5112610666 3.1115900958 3.0315370294 
O 0.2801070355 4.4222911939 1.2332898395 
O 3.3947290062 4.4222911938 0.8991235950 
O -1.1217865797 3.1054725001 3.0315370294 
O 3.2239960406 1.7947776187 0.8991235950 
O -1.3165236281 -0.0030556890 3.3657032739 

