&CONTROL
   calculation      = 'scf'
   verbosity        = 'high'
   nstep            = 1
   tstress          = .true.
   tprnfor          = .true.
   outdir           = 'new_calculations/'
   prefix           = 'myprefix'
   pseudo_dir       = '/home/pragov/projects/rrg-bengioy-ad/pragov/crystal_structure_design/SSSP'
/
&SYSTEM
   ecutwfc          = 30
   ecutrho          = 240
   occupations      = 'smearing'
   degauss          = 0.001
   smearing         = 'mp'
   nspin            = 1
   ntyp             = 3
   nat              = 4
   ibrav            = 0
/
&ELECTRONS
   electron_maxstep = 100
   mixing_mode      = 'plain'
   mixing_beta      = 0.7
   diagonalization  = 'david'
/
&IONS
/
&CELL
/

ATOMIC_SPECIES
Li 6.94 li_pbe_v1.4.uspp.F.UPF
Ni 58.6934 ni_pbe_v1.4.uspp.F.UPF
Sb 121.76 sb_pbe_v1.4.uspp.F.UPF

K_POINTS gamma

CELL_PARAMETERS angstrom
4.22759628000000 0.00000000000000 0.00000000000000
2.11379814000000 3.66120577542459 0.00000000000000
2.11379814000000 1.22040192514153 3.45181790816277

ATOMIC_POSITIONS angstrom
Li 4.2275962800 2.4408038503 1.7259089541 
Ni 2.1137981400 1.2204019251 0.8629544770 
Ni 6.3413944200 3.6612057754 2.5888634311 
Sb 0.0000000000 0.0000000000 0.0000000000 

