&CONTROL
   calculation      = 'scf'
   verbosity        = 'high'
   nstep            = 1
   tstress          = .true.
   tprnfor          = .true.
   outdir           = 'new_calculations/'
   prefix           = 'myprefix'
   pseudo_dir       = '/home/pragov/projects/rrg-bengioy-ad/pragov/crystal_structure_design/SSSP'
/
&SYSTEM
   ecutwfc          = 30
   ecutrho          = 240
   occupations      = 'smearing'
   degauss          = 0.001
   smearing         = 'mp'
   nspin            = 1
   ntyp             = 4
   nat              = 10
   ibrav            = 0
/
&ELECTRONS
   electron_maxstep = 100
   mixing_mode      = 'plain'
   mixing_beta      = 0.7
   diagonalization  = 'david'
/
&IONS
/
&CELL
/

ATOMIC_SPECIES
Ba 137.327 Ba.pbe-spn-kjpaw_psl.1.0.0.UPF
Y 88.90584 Y_pbe_v1.uspp.F.UPF
Re 186.207 Re_pbe_v1.2.uspp.F.UPF
O 15.999 O.pbe-n-kjpaw_psl.0.1.UPF

K_POINTS gamma

CELL_PARAMETERS angstrom
5.99515818000000 0.00000000000000 0.00000000000000
2.99757909000000 5.19195928358608 0.00000000000000
2.99757909000000 1.73065309452869 4.89502615609089

ATOMIC_POSITIONS angstrom
Ba 8.9927372700 5.1919592836 3.6712696171 
Ba 2.9975790900 1.7306530945 1.2237565390 
Y 5.9951581800 3.4613061891 2.4475130780 
Re 0.0000000000 0.0000000000 0.0000000000 
O 7.5872683572 4.3805114285 1.1475605619 
O 7.5872683572 2.5421009497 3.7474655942 
O 4.4030480028 2.5421009497 3.7474655942 
O 5.9951581800 5.2997166679 3.7474655942 
O 5.9951581800 1.6228957103 1.1475605619 
O 4.4030480028 4.3805114285 1.1475605619 

