&CONTROL
   calculation      = 'scf'
   verbosity        = 'high'
   nstep            = 1
   tstress          = .true.
   tprnfor          = .true.
   outdir           = 'new_calculations/'
   prefix           = 'myprefix'
   pseudo_dir       = '/home/pragov/projects/rrg-bengioy-ad/pragov/crystal_structure_design/SSSP'
/
&SYSTEM
   ecutwfc          = 30
   ecutrho          = 240
   occupations      = 'smearing'
   degauss          = 0.001
   smearing         = 'mp'
   nspin            = 1
   ntyp             = 3
   nat              = 12
   ibrav            = 0
/
&ELECTRONS
   electron_maxstep = 100
   mixing_mode      = 'plain'
   mixing_beta      = 0.7
   diagonalization  = 'david'
/
&IONS
/
&CELL
/

ATOMIC_SPECIES
Ba 137.327 Ba.pbe-spn-kjpaw_psl.1.0.0.UPF
La 138.90547 La.GGA-PBE-paw-v1.0.UPF
I 126.90447 I.pbe-n-kjpaw_psl.0.2.UPF

K_POINTS gamma

CELL_PARAMETERS angstrom
9.28414810000000 0.00000000000000 0.00000000000000
-3.32929188436221 8.66667303476100 0.00000000000000
2.32390991985336 3.38220885748953 6.35452899612108

ATOMIC_POSITIONS angstrom
Ba 5.2524788718 4.0148938765 1.5886322490 
Ba 3.0262872637 8.0339880158 4.7658967471 
La -1.5774795827 11.1972283401 4.7658967471 
La 9.8562457182 0.8516535522 1.5886322490 
I 3.9137545791 7.3980476350 1.3991401944 
I 1.6142676960 4.0513839640 1.7781243037 
I 4.3650115564 4.6508342573 4.9553888018 
I 6.6644984394 7.9974979283 4.5764046924 
I 7.7683329301 2.4760784418 3.7168656823 
I 9.9150441532 5.6003930511 5.8149278119 
I 0.5104332054 9.5728034504 2.6376633138 
I -1.6362780177 6.4484888412 0.5396011842 

