&CONTROL
   calculation      = 'scf'
   verbosity        = 'high'
   nstep            = 1
   tstress          = .true.
   tprnfor          = .true.
   outdir           = 'new_calculations/'
   prefix           = 'myprefix'
   pseudo_dir       = '/home/pragov/projects/rrg-bengioy-ad/pragov/crystal_structure_design/SSSP'
/
&SYSTEM
   ecutwfc          = 30
   ecutrho          = 240
   occupations      = 'smearing'
   degauss          = 0.001
   smearing         = 'mp'
   nspin            = 1
   ntyp             = 3
   nat              = 14
   ibrav            = 0
/
&ELECTRONS
   electron_maxstep = 100
   mixing_mode      = 'plain'
   mixing_beta      = 0.7
   diagonalization  = 'david'
/
&IONS
/
&CELL
/

ATOMIC_SPECIES
Cs 132.90545196 Cs_pbe_v1.uspp.F.UPF
W 183.84 W_pbe_v1.2.uspp.F.UPF
O 15.999 O.pbe-n-kjpaw_psl.0.1.UPF

K_POINTS gamma

CELL_PARAMETERS angstrom
7.62815396000000 0.00000000000000 0.00000000000000
4.68464889968705 6.02019912661738 0.00000000000000
3.33289986094723 1.62958191247185 7.58338000438154

ATOMIC_POSITIONS angstrom
Cs 6.7976246201 3.3236180476 1.8199884509 
Cs 12.8637276688 6.2895672870 5.6306293197 
Cs 2.7819750518 1.3602137521 1.9527506846 
Cs 8.8480781005 4.3261629915 5.7633915535 
W 10.8991802340 5.3290250866 1.6802495076 
W 4.7465224866 2.3207559525 5.9031304968 
O 12.2970287646 6.0124865696 2.6279293400 
O 6.0528391490 2.9594640127 4.7992709532 
O 11.7937531365 3.6995678362 6.9420535574 
O 10.1625803723 7.0357213842 6.9420535574 
O 3.8519495841 3.9502132029 0.6413264470 
O 5.4831223483 0.6140596548 0.6413264470 
O 9.5928635716 4.6903170264 2.7841090511 
O 3.3486739560 1.6372944694 4.9554506644 

