&CONTROL
   calculation      = 'scf'
   verbosity        = 'high'
   nstep            = 1
   tstress          = .true.
   tprnfor          = .true.
   outdir           = 'new_calculations/'
   prefix           = 'myprefix'
   pseudo_dir       = '/home/pragov/projects/rrg-bengioy-ad/pragov/crystal_structure_design/SSSP'
/
&SYSTEM
   ecutwfc          = 30
   ecutrho          = 240
   occupations      = 'smearing'
   degauss          = 0.001
   smearing         = 'mp'
   nspin            = 1
   ntyp             = 2
   nat              = 4
   ibrav            = 0
/
&ELECTRONS
   electron_maxstep = 100
   mixing_mode      = 'plain'
   mixing_beta      = 0.7
   diagonalization  = 'david'
/
&IONS
/
&CELL
/

ATOMIC_SPECIES
Bi 208.9804 Bi_pbe_v1.uspp.F.UPF
Te 127.6 Te_pbe_v1.uspp.F.UPF

K_POINTS gamma

CELL_PARAMETERS angstrom
8.65800353000000 0.00000000000000 0.00000000000000
7.58184636974799 4.18050604006640 0.00000000000000
7.58184627274575 1.95173935311806 3.69693799892779

ATOMIC_POSITIONS angstrom
Bi 14.4701320145 3.7249404804 2.2456495334 
Te 18.4980949770 4.7618295895 2.8707573857 
Te 0.5413004021 0.1393430121 0.0840055221 
Te 4.6409428483 1.1946840475 0.7202374610 

