&CONTROL
   calculation      = 'scf'
   verbosity        = 'high'
   nstep            = 1
   tstress          = .true.
   tprnfor          = .true.
   outdir           = 'new_calculations/'
   prefix           = 'myprefix'
   pseudo_dir       = '/home/pragov/projects/rrg-bengioy-ad/pragov/crystal_structure_design/SSSP'
/
&SYSTEM
   ecutwfc          = 30
   ecutrho          = 240
   occupations      = 'smearing'
   degauss          = 0.001
   smearing         = 'mp'
   nspin            = 1
   ntyp             = 2
   nat              = 6
   ibrav            = 0
/
&ELECTRONS
   electron_maxstep = 100
   mixing_mode      = 'plain'
   mixing_beta      = 0.7
   diagonalization  = 'david'
/
&IONS
/
&CELL
/

ATOMIC_SPECIES
Ca 40.078 Ca_pbe_v1.uspp.F.UPF
Mg 24.305 Mg.pbe-n-kjpaw_psl.0.3.0.UPF

K_POINTS gamma

CELL_PARAMETERS angstrom
6.33622795000000 0.00000000000000 0.00000000000000
-3.19268210793261 5.47307642848592 0.00000000000000
0.00000000000000 0.00000000000000 5.94541900000000

ATOMIC_POSITIONS angstrom
Ca -0.5163362613 2.6219648323 4.4590642500 
Ca 2.5249583174 0.8751503940 4.4590642500 
Ca 0.6185875247 4.5979260345 1.4863547500 
Ca 3.6598821034 2.8511115962 1.4863547500 
Mg 2.6231789811 4.5670907219 4.4590642500 
Mg 0.5203668610 0.9059857066 1.4863547500 

