&CONTROL
   calculation      = 'scf'
   verbosity        = 'high'
   nstep            = 1
   tstress          = .true.
   tprnfor          = .true.
   outdir           = 'new_calculations/'
   prefix           = 'myprefix'
   pseudo_dir       = '/home/pragov/projects/rrg-bengioy-ad/pragov/crystal_structure_design/SSSP'
/
&SYSTEM
   ecutwfc          = 30
   ecutrho          = 240
   occupations      = 'smearing'
   degauss          = 0.001
   smearing         = 'mp'
   nspin            = 1
   ntyp             = 3
   nat              = 20
   ibrav            = 0
/
&ELECTRONS
   electron_maxstep = 100
   mixing_mode      = 'plain'
   mixing_beta      = 0.7
   diagonalization  = 'david'
/
&IONS
/
&CELL
/

ATOMIC_SPECIES
Ba 137.327 Ba.pbe-spn-kjpaw_psl.1.0.0.UPF
Sn 118.71 Sn_pbe_v1.uspp.F.UPF
Ru 101.07 Ru_ONCV_PBE-1.0.oncvpsp.upf

K_POINTS gamma

CELL_PARAMETERS angstrom
13.88494315000000 0.00000000000000 0.00000000000000
-11.44304599367896 7.86437185446364 0.00000000000000
0.00000000000000 0.00000000000000 4.47893500000000

ATOMIC_POSITIONS angstrom
Ba -1.0155888472 4.6266335551 1.1197337500 
Ba 3.4574860035 3.2377382994 3.3592012500 
Sn 10.4670069990 1.0612733886 1.1197337500 
Sn -8.0251098427 6.8030984658 3.3592012500 
Sn 1.6354852832 1.1596409518 1.1197337500 
Sn -0.6910424876 1.8820306929 3.3592012500 
Sn 0.8064118731 6.7047309027 3.3592012500 
Sn 3.1329396439 5.9823411616 1.1197337500 
Sn -5.1164435694 5.8999540021 1.1197337500 
Sn 7.5583407258 1.9644178524 3.3592012500 
Sn 5.2313524682 1.0453873575 1.1197337500 
Sn -3.7192296313 3.8245541340 3.3592012500 
Sn -2.7894553119 6.8189844970 3.3592012500 
Sn 6.1611267876 4.0398177204 1.1197337500 
Ru 7.9752285540 0.2092630707 1.1197337500 
Ru -6.4541268612 4.6895957162 3.3592012500 
Ru -5.5333313977 7.6551087838 3.3592012500 
Ru 8.8960240175 3.1747761383 1.1197337500 
Ru 12.9219730028 0.2990034179 1.1197337500 
Ru -10.4800758464 7.5653684366 3.3592012500 

