&CONTROL
   calculation      = 'scf'
   verbosity        = 'high'
   nstep            = 1
   tstress          = .true.
   tprnfor          = .true.
   outdir           = 'new_calculations/'
   prefix           = 'myprefix'
   pseudo_dir       = '/home/pragov/projects/rrg-bengioy-ad/pragov/crystal_structure_design/SSSP'
/
&SYSTEM
   ecutwfc          = 30
   ecutrho          = 240
   occupations      = 'smearing'
   degauss          = 0.001
   smearing         = 'mp'
   nspin            = 1
   ntyp             = 3
   nat              = 7
   ibrav            = 0
/
&ELECTRONS
   electron_maxstep = 100
   mixing_mode      = 'plain'
   mixing_beta      = 0.7
   diagonalization  = 'david'
/
&IONS
/
&CELL
/

ATOMIC_SPECIES
Cs 132.90545196 Cs_pbe_v1.uspp.F.UPF
Ca 40.078 Ca_pbe_v1.uspp.F.UPF
Br 79.904 br_pbe_v1.4.uspp.F.UPF

K_POINTS gamma

CELL_PARAMETERS angstrom
9.97037149000000 0.00000000000000 0.00000000000000
6.66027307735859 7.41950606062272 0.00000000000000
-8.31532228362791 -3.70975303028843 4.06219834846499

ATOMIC_POSITIONS angstrom
Cs 5.9406990685 2.6503514379 0.0000000000 
Cs 10.6899454989 4.7691546227 0.0000000000 
Ca 0.0000000000 0.0000000000 0.0000000000 
Br 2.6525878085 1.1834112167 0.0000000000 
Br 13.9780567589 6.2360948440 0.0000000000 
Br 0.8275246032 -1.8548765151 2.0310991742 
Br -0.8275246031 1.8548765152 2.0310991742 

