&CONTROL
   calculation      = 'scf'
   verbosity        = 'high'
   nstep            = 1
   tstress          = .true.
   tprnfor          = .true.
   outdir           = 'new_calculations/'
   prefix           = 'myprefix'
   pseudo_dir       = '/home/pragov/projects/rrg-bengioy-ad/pragov/crystal_structure_design/SSSP'
/
&SYSTEM
   ecutwfc          = 30
   ecutrho          = 240
   occupations      = 'smearing'
   degauss          = 0.001
   smearing         = 'mp'
   nspin            = 1
   ntyp             = 3
   nat              = 4
   ibrav            = 0
/
&ELECTRONS
   electron_maxstep = 100
   mixing_mode      = 'plain'
   mixing_beta      = 0.7
   diagonalization  = 'david'
/
&IONS
/
&CELL
/

ATOMIC_SPECIES
Li 6.94 li_pbe_v1.4.uspp.F.UPF
La 138.90547 La.GGA-PBE-paw-v1.0.UPF
Hg 200.592 Hg_ONCV_PBE-1.0.oncvpsp.upf

K_POINTS gamma

CELL_PARAMETERS angstrom
5.24906577000000 0.00000000000000 0.00000000000000
2.62453288500000 4.54582430295532 0.00000000000000
2.62453288500000 1.51527476765178 4.28584425426976

ATOMIC_POSITIONS angstrom
Li 0.0000000000 0.0000000000 0.0000000000 
La 5.2490657700 3.0305495353 2.1429221271 
Hg 2.6245328850 1.5152747677 1.0714610636 
Hg 7.8735986550 4.5458243030 3.2143831907 

