&CONTROL
   calculation      = 'scf'
   verbosity        = 'high'
   nstep            = 1
   tstress          = .true.
   tprnfor          = .true.
   outdir           = 'new_calculations/'
   prefix           = 'myprefix'
   pseudo_dir       = '/home/pragov/projects/rrg-bengioy-ad/pragov/crystal_structure_design/SSSP'
/
&SYSTEM
   ecutwfc          = 30
   ecutrho          = 240
   occupations      = 'smearing'
   degauss          = 0.001
   smearing         = 'mp'
   nspin            = 1
   ntyp             = 4
   nat              = 10
   ibrav            = 0
/
&ELECTRONS
   electron_maxstep = 100
   mixing_mode      = 'plain'
   mixing_beta      = 0.7
   diagonalization  = 'david'
/
&IONS
/
&CELL
/

ATOMIC_SPECIES
Na 22.98976928 na_pbe_v1.5.uspp.F.UPF
La 138.90547 La.GGA-PBE-paw-v1.0.UPF
Zr 91.224 Zr_pbe_v1.uspp.F.UPF
O 15.999 O.pbe-n-kjpaw_psl.0.1.UPF

K_POINTS gamma

CELL_PARAMETERS angstrom
5.81018820000000 0.00000000000000 0.00000000000000
-0.05608317013488 5.80991752070947 0.00000000000000
-2.83356332128272 -2.94803017906222 4.12775046327159

ATOMIC_POSITIONS angstrom
Na -1.4698793704 1.4557590960 2.0996669559 
La 1.4993326400 4.2694436833 1.9680206104 
Zr 1.5068521229 1.4164244070 4.1148512431 
Zr -1.4018135011 -1.5204482303 4.1148512431 
O 3.9484881725 4.0643017469 2.0631900251 
O 0.3016771676 3.2351137458 0.0851307256 
O 2.5220597644 5.4770272890 0.0851307256 
O 1.7281055757 1.8223882037 2.0631900251 
O 5.5378274596 0.2697443295 0.3890569922 
O 0.3739809525 -0.3703883359 3.6556555150 

