&CONTROL
   calculation      = 'scf'
   verbosity        = 'high'
   nstep            = 1
   tstress          = .true.
   tprnfor          = .true.
   outdir           = 'new_calculations/'
   prefix           = 'myprefix'
   pseudo_dir       = '/home/pragov/projects/rrg-bengioy-ad/pragov/crystal_structure_design/SSSP'
/
&SYSTEM
   ecutwfc          = 30
   ecutrho          = 240
   occupations      = 'smearing'
   degauss          = 0.001
   smearing         = 'mp'
   nspin            = 1
   ntyp             = 4
   nat              = 10
   ibrav            = 0
/
&ELECTRONS
   electron_maxstep = 100
   mixing_mode      = 'plain'
   mixing_beta      = 0.7
   diagonalization  = 'david'
/
&IONS
/
&CELL
/

ATOMIC_SPECIES
Cs 132.90545196 Cs_pbe_v1.uspp.F.UPF
In 114.818 In.pbe-dn-rrkjus_psl.0.2.2.UPF
Bi 208.9804 Bi_pbe_v1.uspp.F.UPF
I 126.90447 I.pbe-n-kjpaw_psl.0.2.UPF

K_POINTS gamma

CELL_PARAMETERS angstrom
8.98667948000000 0.00000000000000 0.00000000000000
4.49333974000000 7.78269272534833 0.00000000000000
4.49333974000000 2.59423090844944 7.33759306931335

ATOMIC_POSITIONS angstrom
Cs 13.4800192200 7.7826927253 5.5031948020 
Cs 4.4933397400 2.5942309084 1.8343982673 
In 8.9866794800 5.1884618169 3.6687965347 
Bi 0.0000000000 0.0000000000 0.0000000000 
I 8.9866794800 2.5324363282 1.7907029006 
I 6.6864939337 3.8604490726 5.5468901687 
I 8.9866794800 7.8444873056 5.5468901687 
I 6.6864939337 6.5164745612 1.7907029006 
I 11.2868650263 3.8604490726 5.5468901687 
I 11.2868650263 6.5164745612 1.7907029006 

