&CONTROL
   calculation      = 'scf'
   verbosity        = 'high'
   nstep            = 1
   tstress          = .true.
   tprnfor          = .true.
   outdir           = 'new_calculations/'
   prefix           = 'myprefix'
   pseudo_dir       = '/home/pragov/projects/rrg-bengioy-ad/pragov/crystal_structure_design/SSSP'
/
&SYSTEM
   ecutwfc          = 30
   ecutrho          = 240
   occupations      = 'smearing'
   degauss          = 0.001
   smearing         = 'mp'
   nspin            = 1
   ntyp             = 2
   nat              = 8
   ibrav            = 0
/
&ELECTRONS
   electron_maxstep = 100
   mixing_mode      = 'plain'
   mixing_beta      = 0.7
   diagonalization  = 'david'
/
&IONS
/
&CELL
/

ATOMIC_SPECIES
Cr 51.9961 cr_pbe_v1.5.uspp.F.UPF
Ga 69.723 Ga.pbe-dn-kjpaw_psl.1.0.0.UPF

K_POINTS gamma

CELL_PARAMETERS angstrom
4.59724000000000 0.00000000000000 0.00000000000000
0.00000000000000 4.59724000000000 0.00000000000000
0.00000000000000 0.00000000000000 4.59724000000000

ATOMIC_POSITIONS angstrom
Cr 1.1493100000 0.0000000000 2.2986200000 
Cr 3.4479300000 0.0000000000 2.2986200000 
Cr 0.0000000000 2.2986200000 1.1493100000 
Cr 0.0000000000 2.2986200000 3.4479300000 
Cr 2.2986200000 3.4479300000 0.0000000000 
Cr 2.2986200000 1.1493100000 0.0000000000 
Ga 0.0000000000 0.0000000000 0.0000000000 
Ga 2.2986200000 2.2986200000 2.2986200000 

