&CONTROL
   calculation      = 'scf'
   verbosity        = 'high'
   nstep            = 1
   tstress          = .true.
   tprnfor          = .true.
   outdir           = 'new_calculations/'
   prefix           = 'myprefix'
   pseudo_dir       = '/home/pragov/projects/rrg-bengioy-ad/pragov/crystal_structure_design/SSSP'
/
&SYSTEM
   ecutwfc          = 30
   ecutrho          = 240
   occupations      = 'smearing'
   degauss          = 0.001
   smearing         = 'mp'
   nspin            = 1
   ntyp             = 4
   nat              = 12
   ibrav            = 0
/
&ELECTRONS
   electron_maxstep = 100
   mixing_mode      = 'plain'
   mixing_beta      = 0.7
   diagonalization  = 'david'
/
&IONS
/
&CELL
/

ATOMIC_SPECIES
Sc 44.955908 Sc_ONCV_PBE-1.0.oncvpsp.upf
Se 78.971 Se_pbe_v1.uspp.F.UPF
O 15.999 O.pbe-n-kjpaw_psl.0.1.UPF
F 18.998403163 f_pbe_v1.4.uspp.F.UPF

K_POINTS gamma

CELL_PARAMETERS angstrom
4.11558025000000 0.00000000000000 0.00000000000000
-0.59207678669578 6.34504166352478 0.00000000000000
-0.55684149592714 -0.31695921668286 6.63280170785471

ATOMIC_POSITIONS angstrom
Sc 1.4089646433 3.7512280044 5.0159501667 
Sc 1.5576973240 2.2768544425 1.6168515411 
Se 2.1497000899 5.3527386069 1.8517721120 
Se 0.8169618775 0.6753438400 4.7810295958 
O 1.4601448777 5.9046771614 5.1182080707 
O 1.5065170897 0.1234052854 1.5145936372 
O 2.0690539808 4.2273248649 0.5214642375 
O 0.8976079866 1.8007575819 6.1113374704 
O 1.3515023075 4.1570123659 2.8584324272 
O 1.6151596599 1.8710700809 3.7743692806 
F -0.6522009202 3.8858358708 4.9231838021 
F 3.6188628876 2.1422465761 1.7096179058 

