&CONTROL
   calculation      = 'scf'
   verbosity        = 'high'
   nstep            = 1
   tstress          = .true.
   tprnfor          = .true.
   outdir           = 'new_calculations/'
   prefix           = 'myprefix'
   pseudo_dir       = '/home/pragov/projects/rrg-bengioy-ad/pragov/crystal_structure_design/SSSP'
/
&SYSTEM
   ecutwfc          = 30
   ecutrho          = 240
   occupations      = 'smearing'
   degauss          = 0.001
   smearing         = 'mp'
   nspin            = 1
   ntyp             = 4
   nat              = 14
   ibrav            = 0
/
&ELECTRONS
   electron_maxstep = 100
   mixing_mode      = 'plain'
   mixing_beta      = 0.7
   diagonalization  = 'david'
/
&IONS
/
&CELL
/

ATOMIC_SPECIES
Li 6.94 li_pbe_v1.4.uspp.F.UPF
Mn 54.938044 mn_pbe_v1.5.uspp.F.UPF
Rh 102.9055 Rh_ONCV_PBE-1.0.oncvpsp.upf
O 15.999 O.pbe-n-kjpaw_psl.0.1.UPF

K_POINTS gamma

CELL_PARAMETERS angstrom
5.97515358000000 0.00000000000000 0.00000000000000
-0.05457267741060 5.97490436136572 0.00000000000000
-2.84363308896643 -3.10304890080430 4.24114355794982

ATOMIC_POSITIONS angstrom
Li -0.0101843724 4.4538743905 1.0602858895 
Li 3.0871321860 -1.5820189299 3.1808576685 
Mn 1.5384739068 1.4359277303 2.1205717790 
Mn 2.9875767900 0.0000000000 0.0000000000 
Rh 2.9602904513 2.9874521807 0.0000000000 
Rh -1.4491028832 1.4359277303 2.1205717790 
O 2.9731793239 0.0817166365 1.9764025860 
O 1.6203246057 1.4222772043 0.1441691930 
O 4.3009179515 1.4345017108 0.0798352863 
O 2.9609266645 2.7623158016 2.0407364926 
O 0.1037684897 2.7901388241 2.2647409719 
O 1.4566232079 1.4495782563 4.0969743650 
O -1.2239701379 1.4373537497 4.1613082716 
O 0.1160211492 0.1095396589 2.2004070653 

