&CONTROL
   calculation      = 'scf'
   verbosity        = 'high'
   nstep            = 1
   tstress          = .true.
   tprnfor          = .true.
   outdir           = 'new_calculations/'
   prefix           = 'myprefix'
   pseudo_dir       = '/home/pragov/projects/rrg-bengioy-ad/pragov/crystal_structure_design/SSSP'
/
&SYSTEM
   ecutwfc          = 30
   ecutrho          = 240
   occupations      = 'smearing'
   degauss          = 0.001
   smearing         = 'mp'
   nspin            = 1
   ntyp             = 5
   nat              = 20
   ibrav            = 0
/
&ELECTRONS
   electron_maxstep = 100
   mixing_mode      = 'plain'
   mixing_beta      = 0.7
   diagonalization  = 'david'
/
&IONS
/
&CELL
/

ATOMIC_SPECIES
Sr 87.62 Sr_pbe_v1.uspp.F.UPF
Ca 40.078 Ca_pbe_v1.uspp.F.UPF
Ni 58.6934 ni_pbe_v1.4.uspp.F.UPF
W 183.84 W_pbe_v1.2.uspp.F.UPF
O 15.999 O.pbe-n-kjpaw_psl.0.1.UPF

K_POINTS gamma

CELL_PARAMETERS angstrom
5.56925359000000 0.00000000000000 0.00000000000000
0.00914487083752 7.89676004487680 0.00000000000000
0.00000805935061 -0.00000115080395 5.65267199999414

ATOMIC_POSITIONS angstrom
Sr 5.5419224535 1.9704384390 3.0020493091 
Sr 2.7618437763 5.9188179576 5.4769473855 
Ca 0.0635301585 5.9472310960 2.5508756408 
Ca 2.8435812647 1.9988436400 0.2754603592 
Ni 2.7896953768 3.9501088347 2.8401624357 
Ni 0.0004443893 0.0016808619 5.6388738276 
W 2.7929949171 7.8910106274 2.8300215421 
W 5.5730700584 3.9426774116 5.6489977632 
O 4.4095531079 3.6498900760 1.5400761391 
O 1.6294928812 7.5983254274 1.2862429029 
O 1.0736215349 4.3018855584 4.0484323811 
O 3.8536763844 0.3534580776 4.4305699663 
O 3.9889849086 3.6169520783 4.5437534177 
O 1.2089352050 7.5652927408 3.9352602349 
O 1.5302675506 4.2049692053 1.1850600741 
O 4.3103058986 0.2566285738 1.6412646205 
O 5.2224339860 5.8526441948 0.1405593420 
O 2.4332328245 1.9042715510 2.6858444901 
O 0.4836399870 2.0470364906 5.5606634579 
O 3.2728354500 5.9954170510 2.9182767101 

